Au Ge Au  O  C  H                       
   1.00000000000000     
     8.8458995818999995    0.0000000000000000    0.0000000000000000
    -4.4229497909999997    7.6607737573000003    0.0000000000000000
     0.0000000000000000    0.0000000000000000   22.2227001189999989
   Au   Ge   Au   O    C    H 
    17     1    18     1     1     4
Selective dynamics
Direct
  0.0000000000000000  0.0000000000000000  0.0000000000000000   F   F   F
  0.0083987525790977  0.0126268196152847  0.3303140039261601   T   T   T
  0.2214565035959217  0.1097803728778300  0.2165609123299507   T   T   T
  0.1111100036335771  0.2222200072646459  0.1083399993748557   F   F   F
  0.3333300181287697  0.0000000000000000  0.0000000000000000   F   F   F
  0.3370346592052458  0.0125089755985007  0.3303303211009246   T   T   T
  0.5547580214452723  0.1114084863372683  0.2177458662199741   T   T   T
  0.4444399948572268  0.2222200072646459  0.1083399993748557   F   F   F
  0.6666700087876549  0.0000000000000000  0.0000000000000000   F   F   F
  0.6738805256151558  0.0147700294678099  0.3282163132441825   T   T   T
  0.8897397701778734  0.1113975491076316  0.2177304337398073   T   T   T
  0.7777800124212321  0.2222200072646459  0.1083399993748557   F   F   F
  0.9999999925351943  0.3333300031953926  0.0000000000000000   F   F   F
  0.0042555294759461  0.3391759807710264  0.3309878129983500   T   T   T
  0.2242915341923393  0.4427525479553833  0.2203971199610032   T   T   T
  0.1111100262929554  0.5555600161073074  0.1083399993748557   F   F   F
  0.3333300106639641  0.3333300031953926  0.0000000000000000   F   F   F
  0.3240319436630650  0.3150404413484321  0.3454955508708729   T   T   T
  0.5514729021954649  0.4426917831559471  0.2203911078128502   T   T   T
  0.4444400175166052  0.5555600161073074  0.1083399993748557   F   F   F
  0.6666700147754128  0.3333300031953926  0.0000000000000000   F   F   F
  0.6680322199262875  0.3391559399220520  0.3309697906340191   T   T   T
  0.8884333445800452  0.4437653693797411  0.2179701103683052   T   T   T
  0.7777800080624431  0.5555600161073074  0.1083399993748557   F   F   F
  0.0000000093958050  0.6666700275717333  0.0000000000000000   F   F   F
  0.0022482508747195  0.6713609901670519  0.3286196290670774   T   T   T
  0.2248740124771727  0.7742013516760841  0.2200364824917225   T   T   T
  0.1111100207962253  0.8888900503700584  0.1083399993748557   F   F   F
  0.3333300276376222  0.6666700275717333  0.0000000000000000   F   F   F
  0.3264011380924393  0.6798802042084973  0.3339944301027437   T   T   T
  0.5551441724233297  0.7770653132680730  0.2209512249393579   T   T   T
  0.4444400120198752  0.8888900503700584  0.1083399993748557   F   F   F
  0.6666700181834599  0.6666700275717333  0.0000000000000000   F   F   F
  0.6865625624733184  0.6797507267432864  0.3340197585773470   T   T   T
  0.8824654831933447  0.7741891737632689  0.2200501418440698   T   T   T
  0.7777800026787602  0.8888900503700584  0.1083399993748557   F   F   F
  0.4911032855035664  0.6491116658122219  0.3996587539941701   T   T   T
  0.3413184174932051  0.3496830057342192  0.4567751870893282   T   T   T
  0.2710143247867391  0.2090998960892767  0.4477574741212720   T   T   T
  0.4584224032500455  0.3788003737725953  0.4823663096786285   T   T   T
  0.2533840233417559  0.3788086967405216  0.4824103228806752   T   T   T
  0.4107995585985487  0.4886258704287672  0.4227769085532925   T   T   T
 
  0.00000000E+00  0.00000000E+00  0.00000000E+00
  0.20717285E-02  0.12596770E-01 -0.50839861E-02
 -0.10801222E-02 -0.53942232E-02  0.49225698E-02
  0.00000000E+00  0.00000000E+00  0.00000000E+00
  0.00000000E+00  0.00000000E+00  0.00000000E+00
 -0.39799476E-02  0.46816713E-02 -0.61631735E-02
 -0.34020847E-02  0.50419677E-02  0.50044814E-02
  0.00000000E+00  0.00000000E+00  0.00000000E+00
  0.00000000E+00  0.00000000E+00  0.00000000E+00
  0.45311797E-03 -0.15023801E-02 -0.97392326E-02
  0.47526876E-02  0.14028052E-02  0.40727982E-02
  0.00000000E+00  0.00000000E+00  0.00000000E+00
  0.00000000E+00  0.00000000E+00  0.00000000E+00
  0.59358482E-02 -0.62165735E-02 -0.25108881E-02
  0.10175486E-02 -0.34937530E-03  0.31418100E-02
  0.00000000E+00  0.00000000E+00  0.00000000E+00
  0.00000000E+00  0.00000000E+00  0.00000000E+00
  0.12930521E-02  0.58134784E-02  0.16107865E+00
 -0.24633456E-02 -0.31521666E-02  0.22699222E-02
  0.00000000E+00  0.00000000E+00  0.00000000E+00
  0.00000000E+00  0.00000000E+00  0.00000000E+00
 -0.29125426E-02 -0.18154869E-02 -0.36655812E-02
  0.13081760E-03 -0.55120288E-02  0.14315729E-02
  0.00000000E+00  0.00000000E+00  0.00000000E+00
  0.00000000E+00  0.00000000E+00  0.00000000E+00
  0.19058232E-02 -0.43911775E-03  0.62750138E-02
  0.34633857E-02  0.30163989E-03  0.73949526E-02
  0.00000000E+00  0.00000000E+00  0.00000000E+00
  0.00000000E+00  0.00000000E+00  0.00000000E+00
 -0.15444385E-01 -0.82109046E-02 -0.27540718E-01
  0.16610579E-03 -0.56948470E-02  0.91142733E-02
  0.00000000E+00  0.00000000E+00  0.00000000E+00
  0.00000000E+00  0.00000000E+00  0.00000000E+00
  0.14137452E-01 -0.88413217E-02 -0.22790632E-01
 -0.32955380E-02  0.44928221E-02  0.39980487E-02
  0.00000000E+00  0.00000000E+00  0.00000000E+00
 -0.15060699E-02 -0.35431714E+00  0.28895265E+00
  0.25564238E-02 -0.23688590E+00 -0.82563038E-01
 -0.53307833E-03 -0.20321635E+00  0.11750982E+00
 -0.12405476E-01  0.66693499E-02 -0.12432489E+00
  0.79490597E-02  0.84207462E-02 -0.12154788E+00
  0.24510272E-03  0.72627623E+00 -0.29338293E+00
