Au Re Au O  C  H 
 1.0000000000000000
     8.8458995818999995    0.0000000000000000    0.0000000000000000
    -4.4229497909999997    7.6607737573000003    0.0000000000000000
     0.0000000000000000    0.0000000000000000   22.2227001189999989
 Au  Re  Au  O   C   H  
  17   1  18   1   1   4
Selective dynamics
Cartesian
  0.0000000000000000  0.0000000000000000  0.0000000000000000   F   F   F
  0.0563501321898663  0.0802876877431690  7.2806327310201349   T   T   T
  1.4743611814116746  0.8346336412314976  4.7443008921172058   T   T   T
 -0.0000000000000179  1.7023772000000148  2.4076073170000654   F   F   F
  2.9486038680000033  0.0000000000000000  0.0000000000000000   F   F   F
  2.8923037554462070  0.0803203250680403  7.2805806445407821   T   T   T
  4.4537320270849090  0.8241025989057994  4.8119374979788665   T   T   T
  2.9486036299999960  1.7023772000000148  2.4076073170000654   F   F   F
  5.8972959519999852  0.0000000000000000  0.0000000000000000   F   F   F
  5.8973718075954951  0.2608084402782764  7.3901744021763029   T   T   T
  7.3408632739120243  0.8241871716366191  4.8120503491082829   T   T   T
  5.8972959519999684  1.7023772000000148  2.4076073170000654   F   F   F
  7.3715976478999874  2.5535657409999883  0.0000000000000000   F   F   F
 -1.4028595197271456  2.5574793509700324  7.2088570338813529   T   T   T
  0.0124730906731710  3.4441306039867561  4.8018100980745428   T   T   T
 -1.4743459220000192  4.2560195920000252  2.4076073170000654   F   F   F
  1.4743019339999919  2.5535657409999883  0.0000000000000000   F   F   F
  1.4742449647000082  2.4351226801532957  6.9413409047632593   T   T   T
  2.9361942691505729  3.4441319814358464  4.8017778801265338   T   T   T
  1.4742577079999950  4.2560195920000252  2.4076073170000654   F   F   F
  4.4229941369999999  2.5535657409999883  0.0000000000000000   F   F   F
  4.3514849053102767  2.5574708135612787  7.2087631310274958   T   T   T
  5.8972569832269608  3.4102747962782103  4.7960199286053307   T   T   T
  4.4229497909999722  4.2560195920000252  2.4076073170000654   F   F   F
 -2.9486479760000139  5.1072082520000013  0.0000000000000000   F   F   F
 -2.9485907848814508  5.1323037773033713  7.2268098245470886   T   T   T
 -1.4534831185392978  5.9654420690173051  4.8598356513794165   T   T   T
 -2.9486479759999997  6.8095855710000182  2.4076073170000654   F   F   F
 -0.0000441070000049  5.1072082520000013  0.0000000000000000   F   F   F
  0.0353948020442060  4.8001373038520914  7.5036395467549850   T   T   T
  1.4743680704016047  5.9714591770683469  4.8570609516250904   T   T   T
 -0.0000443459999857  6.8095855710000182  2.4076073170000654   F   F   F
  2.9486479759999722  5.1072082520000013  0.0000000000000000   F   F   F
  2.9133362868815116  4.8001244128851397  7.5036487353772499   T   T   T
  4.4022239791432893  5.9654398935635777  4.8598287840346774   T   T   T
  2.9486477379999969  6.8095855710000182  2.4076073170000654   F   F   F
  1.4743484239482638  6.0868965476302384  8.4456879250796124   T   T   T
  1.4742449647000084  2.4351226801532952  9.9413409047632584   T   T   T
  1.4742197581997754  1.5454154725773610  9.3122229047633098   T   T   T
  2.3639521722759431  2.4350974736531317 10.5704589047632069   T   T   T
  0.5845377571240697  2.4351478866534535 10.5704589047632069   T   T   T
  1.4742701712002473  3.3248298877292339  9.3122229047633098   T   T   T
