Cu Hf Cu O  C  H                        
   1.00000000000000     
     6.3046998978000000    0.0000000000000000    0.0000000000000000
     0.0000000000000000    7.7216000556999997    0.0000000000000000
     0.0000000000000000    0.0000000000000000   25.4022006988999998
   Cu   Hf   Cu   O    C    H 
    19     1    25     1     1     4
Selective dynamics
Direct
     0.0000000000000000    0.0000000000000000    0.0000000000000000   F   F   F
     0.3333299999999966    0.0000000000000000    0.1169999999999973   F   F   F
     0.6663832499363521    0.9953064645872030    0.2348649008585774   T   T   T
     0.9971811582065583    0.9997285480599272    0.3568831023104193   T   T   T
     0.6507268789081011    0.9902020029625520    0.4072395999008308   T   T   T
     0.6666700000000034    0.0000000000000000    0.0585000000000022   F   F   F
     0.0001518657733404    0.9975254154330911    0.1759746239699411   T   T   T
     0.3319029892503079    0.9974868494557104    0.2943132714704619   T   T   T
     0.3333299999999966    0.1666700000000034    0.0292499999999976   F   F   F
     0.6666700000000034    0.1666700000000034    0.1462500000000020   F   F   F
     0.0045041286877320    0.1616849817088778    0.2628105922986075   T   T   T
     0.3366690281413467    0.1682563077320406    0.3833058842383709   T   T   T
     0.0000000000000000    0.1666700000000034    0.0877499999999998   F   F   F
     0.3359449813082363    0.1632496742539971    0.2048795905711768   T   T   T
     0.6753587641229718    0.1620561188336329    0.3213910631226560   T   T   T
     0.0000000000000000    0.3333299999999966    0.0000000000000000   F   F   F
     0.3333299999999966    0.3333299999999966    0.1169999999999973   F   F   F
     0.6724803071334877    0.3311871110697367    0.2338078748215016   T   T   T
     0.0179949826095098    0.3306363061435093    0.3486616761809844   T   T   T
     0.7179781826477795    0.3333205817502694    0.4211729355528673   T   T   T
     0.6666700000000034    0.3333299999999966    0.0585000000000022   F   F   F
     0.0028193541421279    0.3318120068009287    0.1753118866124365   T   T   T
     0.3450653225209113    0.3289910369152136    0.2916903814128429   T   T   T
     0.3333299999999966    0.5000000000000000    0.0292499999999976   F   F   F
     0.6666700000000034    0.5000000000000000    0.1462500000000020   F   F   F
     0.0031405125560391    0.4987107682455201    0.2629107699180883   T   T   T
     0.3399060913938564    0.4941239595290534    0.3806856087675611   T   T   T
     0.0000000000000000    0.5000000000000000    0.0877499999999998   F   F   F
     0.3356217960974677    0.4986561140379009    0.2052345309270360   T   T   T
     0.6750869395166655    0.4955388829851857    0.3243286189816982   T   T   T
     0.0000000000000000    0.6666700000000034    0.0000000000000000   F   F   F
     0.3333299999999966    0.6666700000000034    0.1169999999999973   F   F   F
     0.6662440309998756    0.6637671557447975    0.2348964921207106   T   T   T
     0.9986250908353962    0.6612397233545882    0.3554068622542406   T   T   T
     0.6589844765114062    0.6776100142623259    0.4147985177427247   T   T   T
     0.6666700000000034    0.6666700000000034    0.0585000000000022   F   F   F
     0.9996425223737824    0.6659879454471459    0.1759373125625060   T   T   T
     0.3318922300271180    0.6626248736047610    0.2943491808790810   T   T   T
     0.3333299999999966    0.8333299999999966    0.0292499999999976   F   F   F
     0.6666700000000034    0.8333299999999966    0.1462500000000020   F   F   F
     0.9986887762928807    0.8304687494372462    0.2656229587572894   T   T   T
     0.3249352081059861    0.8292433696552208    0.3814288073491363   T   T   T
     0.0000000000000000    0.8333299999999966    0.0877499999999998   F   F   F
     0.3319714566811275    0.8306576659045475    0.2061333564282716   T   T   T
     0.6674884759892448    0.8243236519708608    0.3241637598139110   T   T   T
     0.7268659903288054    0.5052608582681332    0.4707577506965403   T   T   T
     0.6398880182941088    0.7083121597337800    0.5878938598287323   T   T   T
     0.6116076455542108    0.8107789161751110    0.5591048637632605   T   T   T
     0.5000336492898448    0.6933326190881465    0.6127434187675470   T   T   T
     0.7761187361396258    0.7425203481732123    0.6122291614905725   T   T   T
     0.6719195171917467    0.5881425859273036    0.5668955770072663   T   T   T
 
  0.00000000E+00  0.00000000E+00  0.00000000E+00
  0.00000000E+00  0.00000000E+00  0.00000000E+00
  0.00000000E+00  0.00000000E+00  0.00000000E+00
  0.00000000E+00  0.00000000E+00  0.00000000E+00
  0.00000000E+00  0.00000000E+00  0.00000000E+00
  0.00000000E+00  0.00000000E+00  0.00000000E+00
  0.00000000E+00  0.00000000E+00  0.00000000E+00
  0.00000000E+00  0.00000000E+00  0.00000000E+00
  0.00000000E+00  0.00000000E+00  0.00000000E+00
  0.00000000E+00  0.00000000E+00  0.00000000E+00
  0.00000000E+00  0.00000000E+00  0.00000000E+00
  0.00000000E+00  0.00000000E+00  0.00000000E+00
  0.00000000E+00  0.00000000E+00  0.00000000E+00
  0.00000000E+00  0.00000000E+00  0.00000000E+00
  0.00000000E+00  0.00000000E+00  0.00000000E+00
  0.00000000E+00  0.00000000E+00  0.00000000E+00
  0.00000000E+00  0.00000000E+00  0.00000000E+00
  0.00000000E+00  0.00000000E+00  0.00000000E+00
  0.00000000E+00  0.00000000E+00  0.00000000E+00
  0.00000000E+00  0.00000000E+00  0.00000000E+00
  0.00000000E+00  0.00000000E+00  0.00000000E+00
  0.00000000E+00  0.00000000E+00  0.00000000E+00
  0.00000000E+00  0.00000000E+00  0.00000000E+00
  0.00000000E+00  0.00000000E+00  0.00000000E+00
  0.00000000E+00  0.00000000E+00  0.00000000E+00
  0.00000000E+00  0.00000000E+00  0.00000000E+00
  0.00000000E+00  0.00000000E+00  0.00000000E+00
  0.00000000E+00  0.00000000E+00  0.00000000E+00
  0.00000000E+00  0.00000000E+00  0.00000000E+00
  0.00000000E+00  0.00000000E+00  0.00000000E+00
  0.00000000E+00  0.00000000E+00  0.00000000E+00
  0.00000000E+00  0.00000000E+00  0.00000000E+00
  0.00000000E+00  0.00000000E+00  0.00000000E+00
  0.00000000E+00  0.00000000E+00  0.00000000E+00
  0.00000000E+00  0.00000000E+00  0.00000000E+00
  0.00000000E+00  0.00000000E+00  0.00000000E+00
  0.00000000E+00  0.00000000E+00  0.00000000E+00
  0.00000000E+00  0.00000000E+00  0.00000000E+00
  0.00000000E+00  0.00000000E+00  0.00000000E+00
  0.00000000E+00  0.00000000E+00  0.00000000E+00
  0.00000000E+00  0.00000000E+00  0.00000000E+00
  0.00000000E+00  0.00000000E+00  0.00000000E+00
  0.00000000E+00  0.00000000E+00  0.00000000E+00
  0.00000000E+00  0.00000000E+00  0.00000000E+00
  0.00000000E+00  0.00000000E+00  0.00000000E+00
  0.00000000E+00  0.00000000E+00  0.00000000E+00
  0.00000000E+00  0.00000000E+00  0.00000000E+00
  0.00000000E+00  0.00000000E+00  0.00000000E+00
  0.00000000E+00  0.00000000E+00  0.00000000E+00
  0.00000000E+00  0.00000000E+00  0.00000000E+00
  0.00000000E+00  0.00000000E+00  0.00000000E+00
