Ag Ga Ag O  C  H 
 1.0000000000000000
    12.4799995421999999    0.0000000000000000    0.0000000000000000
     0.0000000000000000    8.8247003554999992    0.0000000000000000
     0.0000000000000000    0.0000000000000000   19.4123001098999985
 Ag  Ga  Ag  O   C   H  
  16   1  19   1   1   4
Selective dynamics
Cartesian
  0.0137061111398188  0.0219312029245908  4.3192936888443434   T   T   T
  2.0968073319981495  1.5179525766024946  3.0186657967233366   T   T   T
  2.0800414560000062  1.4708127609999764  0.0000000000000000   F   F   F
  0.0000000000000000  0.0000000000000000  1.4708699430000391   F   F   F
  4.1589342168960659  0.0121495872136057  4.3765038873041266   T   T   T
  6.2231556671926196  1.5184965749416495  3.0216692761621009   T   T   T
  6.2399997709999733  1.4708127609999764  0.0000000000000000   F   F   F
  4.1599583149999679  0.0000000000000000  1.4708699430000391   F   F   F
  8.3056277393582167  0.0188074039080514  4.3189988881481112   T   T   T
 10.4004581266143283  1.4732337673545810  2.9934180155648655   T   T   T
 10.3999577140000223  1.4708127609999764  0.0000000000000000   F   F   F
  8.3200415989999890  0.0000000000000000  1.4708699430000391   F   F   F
 12.4628002051550499  2.9591019913253724  4.3263328124308327   T   T   T
  2.1178048892106616  4.4130421657523753  2.9949318987655271   T   T   T
  2.0800414560000062  4.4123501779999978  0.0000000000000000   F   F   F
  0.0000000000000000  2.9415374170000210  1.4708699430000391   F   F   F
  4.1573335295674152  2.6312355078319789  4.5428400494397474   T   T   T
  6.2040525154764863  4.4126119838265332  2.9958180468573383   T   T   T
  6.2399997709999733  4.4123501779999978  0.0000000000000000   F   F   F
  4.1599583149999679  2.9415374170000210  1.4708699430000391   F   F   F
  8.3439489481835807  2.9568144601125654  4.3257833753114854   T   T   T
 10.4012878385238086  4.4299584463063102  2.9945345967843426   T   T   T
 10.3999577140000223  4.4123501779999978  0.0000000000000000   F   F   F
  8.3200415989999890  2.9415374170000210  1.4708699430000391   F   F   F
  0.0159835956124069  5.9075854955941178  4.3152958536237005   T   T   T
  2.1015543785421573  7.3716628747774200  2.9755335816603217   T   T   T
  2.0800414560000062  7.3538873320000047  0.0000000000000000   F   F   F
  0.0000000000000000  5.8831632009999959  1.4708699430000391   F   F   F
  4.1567798277363019  6.0127941895164003  4.4391138322291601   T   T   T
  6.2181465299984771  7.3719289591170227  2.9763082866537585   T   T   T
  6.2399997709999733  7.3538873320000047  0.0000000000000000   F   F   F
  4.1599583149999679  5.8831632009999959  1.4708699430000391   F   F   F
  8.3027122413834533  5.9059476307263736  4.3135956921500140   T   T   T
 10.4000309527420143  7.3651994297260464  2.9936369331541397   T   T   T
 10.3999577140000223  7.3538873320000047  0.0000000000000000   F   F   F
  8.3200415989999890  5.8831632009999959  1.4708699430000391   F   F   F
  4.1569499880508944  4.1224396816936437  5.4747338850370371   T   T   T
  4.1573335295674152  2.6312355078319793  8.0428400494397483   T   T   T
  4.1575623645227431  1.7415283293274459  7.4137220494397988   T   T   T
  5.0470407080719495  2.6314643427873774  8.6719580494396968   T   T   T
  3.2676263510628774  2.6310066728765764  8.6719580494396968   T   T   T
  4.1571046946120926  3.5209426863365172  7.4137220494397988   T   T   T
