Cu Hf Cu O  C  H                        
   1.00000000000000     
     6.3046998978000000    0.0000000000000000    0.0000000000000000
     0.0000000000000000    7.7216000556999997    0.0000000000000000
     0.0000000000000000    0.0000000000000000   25.4022006988999998
   Cu   Hf   Cu   O    C    H 
    19     1    25     1     1     4
Selective dynamics
Direct
     0.0000000000000000    0.0000000000000000    0.0000000000000000   F   F   F
     0.3333299999999966    0.0000000000000000    0.1169999999999973   F   F   F
     0.6645250076137578    0.0010686870260730    0.2344020060196171   T   T   T
     0.9964645014324710    0.0008378800919541    0.3543824565325724   T   T   T
     0.6649769307815862    0.9897931538787258    0.4068725686483297   T   T   T
     0.6666700000000034    0.0000000000000000    0.0585000000000022   F   F   F
     0.9999801039050213    0.9991116786912243    0.1758064804285997   T   T   T
     0.3293106153574122    0.0028899738513932    0.2947480868718485   T   T   T
     0.3333299999999966    0.1666700000000034    0.0292499999999976   F   F   F
     0.6666700000000034    0.1666700000000034    0.1462500000000020   F   F   F
     0.9973059316349900    0.1649976819313813    0.2631192049224713   T   T   T
     0.3221867550229114    0.1607251215076403    0.3841774092928589   T   T   T
     0.0000000000000000    0.1666700000000034    0.0877499999999998   F   F   F
     0.3323730380318687    0.1661263024596829    0.2055680983319574   T   T   T
     0.6660067825653814    0.1700556298303766    0.3248645425865162   T   T   T
     0.0000000000000000    0.3333299999999966    0.0000000000000000   F   F   F
     0.3333299999999966    0.3333299999999966    0.1169999999999973   F   F   F
     0.6648302240013467    0.3331352121625656    0.2348256833531427   T   T   T
     0.0044081553070167    0.3329939784529018    0.3490614351784143   T   T   T
     0.6843447693239317    0.3325165517557799    0.4256104598482041   T   T   T
     0.6666700000000034    0.3333299999999966    0.0585000000000022   F   F   F
     0.9997358233058512    0.3332361204947536    0.1754846830053619   T   T   T
     0.3349381335184632    0.3332151283905144    0.2941069067554175   T   T   T
     0.3333299999999966    0.5000000000000000    0.0292499999999976   F   F   F
     0.6666700000000034    0.5000000000000000    0.1462500000000020   F   F   F
     0.9971943325679449    0.5010641717624351    0.2631239053017844   T   T   T
     0.3222170763130237    0.5045397807423242    0.3843105110960810   T   T   T
     0.0000000000000000    0.5000000000000000    0.0877499999999998   F   F   F
     0.3321765706658907    0.5001609564958561    0.2055438384361294   T   T   T
     0.6662596640338505    0.4961123776650183    0.3249101231983851   T   T   T
     0.0000000000000000    0.6666700000000034    0.0000000000000000   F   F   F
     0.3333299999999966    0.6666700000000034    0.1169999999999973   F   F   F
     0.6643632042430971    0.6649395715023705    0.2344315783719890   T   T   T
     0.9967816363864547    0.6649410355999880    0.3544610951128736   T   T   T
     0.6651736166321552    0.6750499550359257    0.4069846313369688   T   T   T
     0.6666700000000034    0.6666700000000034    0.0585000000000022   F   F   F
     0.9998016159593609    0.6671433706420482    0.1756880273087186   T   T   T
     0.3291197749749618    0.6629566368992023    0.2948674041419675   T   T   T
     0.3333299999999966    0.8333299999999966    0.0292499999999976   F   F   F
     0.6666700000000034    0.8333299999999966    0.1462500000000020   F   F   F
     0.9983358074497067    0.8329994884409161    0.2639297790615205   T   T   T
     0.3265517175342236    0.8326311757883709    0.3810908364926852   T   T   T
     0.0000000000000000    0.8333299999999966    0.0877499999999998   F   F   F
     0.3321958278382258    0.8331501274781503    0.2064060508536669   T   T   T
     0.6663744987289661    0.8328438478195235    0.3204617392788922   T   T   T
     0.4045130850801816    0.3327420435874673    0.4476666167613422   T   T   T
     0.7775630987638661    0.3339399619233631    0.5556773314684869   T   T   T
     0.9015929405021677    0.3337620467254820    0.5252575849683798   T   T   T
     0.7983982093351817    0.4497766521469403    0.5797111641414060   T   T   T
     0.7973854593704457    0.2176952198778456    0.5795844799304382   T   T   T
     0.6179697010198629    0.3344691718547186    0.5388891797302560   T   T   T
 
  0.00000000E+00  0.00000000E+00  0.00000000E+00
  0.00000000E+00  0.00000000E+00  0.00000000E+00
  0.00000000E+00  0.00000000E+00  0.00000000E+00
  0.00000000E+00  0.00000000E+00  0.00000000E+00
  0.00000000E+00  0.00000000E+00  0.00000000E+00
  0.00000000E+00  0.00000000E+00  0.00000000E+00
  0.00000000E+00  0.00000000E+00  0.00000000E+00
  0.00000000E+00  0.00000000E+00  0.00000000E+00
  0.00000000E+00  0.00000000E+00  0.00000000E+00
  0.00000000E+00  0.00000000E+00  0.00000000E+00
  0.00000000E+00  0.00000000E+00  0.00000000E+00
  0.00000000E+00  0.00000000E+00  0.00000000E+00
  0.00000000E+00  0.00000000E+00  0.00000000E+00
  0.00000000E+00  0.00000000E+00  0.00000000E+00
  0.00000000E+00  0.00000000E+00  0.00000000E+00
  0.00000000E+00  0.00000000E+00  0.00000000E+00
  0.00000000E+00  0.00000000E+00  0.00000000E+00
  0.00000000E+00  0.00000000E+00  0.00000000E+00
  0.00000000E+00  0.00000000E+00  0.00000000E+00
  0.00000000E+00  0.00000000E+00  0.00000000E+00
  0.00000000E+00  0.00000000E+00  0.00000000E+00
  0.00000000E+00  0.00000000E+00  0.00000000E+00
  0.00000000E+00  0.00000000E+00  0.00000000E+00
  0.00000000E+00  0.00000000E+00  0.00000000E+00
  0.00000000E+00  0.00000000E+00  0.00000000E+00
  0.00000000E+00  0.00000000E+00  0.00000000E+00
  0.00000000E+00  0.00000000E+00  0.00000000E+00
  0.00000000E+00  0.00000000E+00  0.00000000E+00
  0.00000000E+00  0.00000000E+00  0.00000000E+00
  0.00000000E+00  0.00000000E+00  0.00000000E+00
  0.00000000E+00  0.00000000E+00  0.00000000E+00
  0.00000000E+00  0.00000000E+00  0.00000000E+00
  0.00000000E+00  0.00000000E+00  0.00000000E+00
  0.00000000E+00  0.00000000E+00  0.00000000E+00
  0.00000000E+00  0.00000000E+00  0.00000000E+00
  0.00000000E+00  0.00000000E+00  0.00000000E+00
  0.00000000E+00  0.00000000E+00  0.00000000E+00
  0.00000000E+00  0.00000000E+00  0.00000000E+00
  0.00000000E+00  0.00000000E+00  0.00000000E+00
  0.00000000E+00  0.00000000E+00  0.00000000E+00
  0.00000000E+00  0.00000000E+00  0.00000000E+00
  0.00000000E+00  0.00000000E+00  0.00000000E+00
  0.00000000E+00  0.00000000E+00  0.00000000E+00
  0.00000000E+00  0.00000000E+00  0.00000000E+00
  0.00000000E+00  0.00000000E+00  0.00000000E+00
  0.00000000E+00  0.00000000E+00  0.00000000E+00
  0.00000000E+00  0.00000000E+00  0.00000000E+00
  0.00000000E+00  0.00000000E+00  0.00000000E+00
  0.00000000E+00  0.00000000E+00  0.00000000E+00
  0.00000000E+00  0.00000000E+00  0.00000000E+00
  0.00000000E+00  0.00000000E+00  0.00000000E+00
