Cu Pb Cu O                              
   1.00000000000000     
     7.7216000556999997    0.0000000000000000    0.0000000000000000
     0.0000000000000000    7.7216000556999997    0.0000000000000000
     0.0000000000000000    0.0000000000000000   20.4599990845000015
   Cu   Pb   Cu   O 
    17     1    18     1
Selective dynamics
Direct
  0.0000000000000000  0.0000000000000000  0.0889500007054593   F   F   F
 -0.0141174487277614 -0.0140661124429460  0.2688368554312160   T   T   T
  0.1666699946535033  0.1666699946535033  0.0000000000000000   F   F   F
  0.1651772687407837  0.1652051594907103  0.1749271638048938   T   T   T
  0.3333300053659229  0.0000000000000000  0.0889500007054593   F   F   F
  0.3249547263983007  0.0069073937046441  0.2671260433658941   T   T   T
  0.5000000000194262  0.1666699946535033  0.0000000000000000   F   F   F
  0.4949662414043519  0.1732790668309396  0.1792921762541828   T   T   T
  0.6666700243299957  0.0000000000000000  0.0889500007054593   F   F   F
  0.6571416775750584  0.0011962752968833  0.2639771759816036   T   T   T
  0.8333299755987795  0.1666699946535033  0.0000000000000000   F   F   F
  0.8341303691658088  0.1628201824680464  0.1776804868671437   T   T   T
  0.0000000000000000  0.3333300053659229  0.0889500007054593   F   F   F
  0.0069083121627033  0.3249638712320050  0.2671268440653677   T   T   T
  0.1666699946535033  0.5000000000194262  0.0000000000000000   F   F   F
  0.1732755936425839  0.4949675053972612  0.1792933267185282   T   T   T
  0.3333300053659229  0.3333300053659229  0.0889500007054593   F   F   F
  0.3602073807666569  0.3602065261213003  0.3234645938575660   T   T   T
  0.5000000000194262  0.5000000000194262  0.0000000000000000   F   F   F
  0.5018725642808389  0.5018754826094072  0.1783107446688254   T   T   T
  0.6666700243299957  0.3333300053659229  0.0889500007054593   F   F   F
  0.6779231465142640  0.3323556062483654  0.2630065372553325   T   T   T
  0.8333299755987795  0.5000000000194262  0.0000000000000000   F   F   F
  0.8386471711918783  0.4953999206206947  0.1785481865599404   T   T   T
  0.0000000000000000  0.6666700243299957  0.0889500007054593   F   F   F
  0.0012226077766057  0.6571458830465767  0.2639787150709882   T   T   T
  0.1666699946535033  0.8333299755987795  0.0000000000000000   F   F   F
  0.1628202254948039  0.8341393937017004  0.1776800397258880   T   T   T
  0.3333300053659229  0.6666700243299957  0.0889500007054593   F   F   F
  0.3323525600660661  0.6779186271006451  0.2630069810139998   T   T   T
  0.5000000000194262  0.8333299755987795  0.0000000000000000   F   F   F
  0.4953865311567691  0.8386420315118539  0.1785444501569865   T   T   T
  0.6666700243299957  0.6666700243299957  0.0889500007054593   F   F   F
  0.6679713209287795  0.6679780239292351  0.2638487529255015   T   T   T
  0.8333299755987795  0.8333299755987795  0.0000000000000000   F   F   F
  0.8327525405676627  0.8327528198142744  0.1786185088515870   T   T   T
  0.1425211388953555  0.1425152908037769  0.3157710821094729   T   T   T
 
  0.00000000E+00  0.00000000E+00  0.00000000E+00
  0.00000000E+00  0.00000000E+00  0.00000000E+00
  0.00000000E+00  0.00000000E+00  0.00000000E+00
  0.00000000E+00  0.00000000E+00  0.00000000E+00
  0.00000000E+00  0.00000000E+00  0.00000000E+00
  0.00000000E+00  0.00000000E+00  0.00000000E+00
  0.00000000E+00  0.00000000E+00  0.00000000E+00
  0.00000000E+00  0.00000000E+00  0.00000000E+00
  0.00000000E+00  0.00000000E+00  0.00000000E+00
  0.00000000E+00  0.00000000E+00  0.00000000E+00
  0.00000000E+00  0.00000000E+00  0.00000000E+00
  0.00000000E+00  0.00000000E+00  0.00000000E+00
  0.00000000E+00  0.00000000E+00  0.00000000E+00
  0.00000000E+00  0.00000000E+00  0.00000000E+00
  0.00000000E+00  0.00000000E+00  0.00000000E+00
  0.00000000E+00  0.00000000E+00  0.00000000E+00
  0.00000000E+00  0.00000000E+00  0.00000000E+00
  0.00000000E+00  0.00000000E+00  0.00000000E+00
  0.00000000E+00  0.00000000E+00  0.00000000E+00
  0.00000000E+00  0.00000000E+00  0.00000000E+00
  0.00000000E+00  0.00000000E+00  0.00000000E+00
  0.00000000E+00  0.00000000E+00  0.00000000E+00
  0.00000000E+00  0.00000000E+00  0.00000000E+00
  0.00000000E+00  0.00000000E+00  0.00000000E+00
  0.00000000E+00  0.00000000E+00  0.00000000E+00
  0.00000000E+00  0.00000000E+00  0.00000000E+00
  0.00000000E+00  0.00000000E+00  0.00000000E+00
  0.00000000E+00  0.00000000E+00  0.00000000E+00
  0.00000000E+00  0.00000000E+00  0.00000000E+00
  0.00000000E+00  0.00000000E+00  0.00000000E+00
  0.00000000E+00  0.00000000E+00  0.00000000E+00
  0.00000000E+00  0.00000000E+00  0.00000000E+00
  0.00000000E+00  0.00000000E+00  0.00000000E+00
  0.00000000E+00  0.00000000E+00  0.00000000E+00
  0.00000000E+00  0.00000000E+00  0.00000000E+00
  0.00000000E+00  0.00000000E+00  0.00000000E+00
  0.00000000E+00  0.00000000E+00  0.00000000E+00
