Ni Ag Ni C  H  O                        
   1.00000000000000     
     7.4670000076000003    0.0000000000000000    0.0000000000000000
    -3.7335000038000001    6.4666116967000002    0.0000000000000000
     0.0000000000000000    0.0000000000000000   21.0967998504999983
   Ni   Ag   Ni   C    H    O 
    17     1    18     1     4     1
Selective dynamics
Direct
  0.0000000000000000  0.0000000000000000  0.0000000000000000   F   F   F
  0.0035964621006498  0.0007821790630656  0.2872346601955360   T   T   T
  0.2237990472265547  0.1144548963889600  0.1935578250261323   T   T   T
  0.1111100018370763  0.2222200036741526  0.0963300019624427   F   F   F
  0.3333300054194055  0.0000000000000000  0.0000000000000000   F   F   F
  0.3314911435579159  0.0009591288781514  0.2871362395355185   T   T   T
  0.5566040304109564  0.1113921981995865  0.1936604279121253   T   T   T
  0.4444400072564818  0.2222200036741526  0.0963300019624427   F   F   F
  0.6666700243649828  0.0000000000000000  0.0000000000000000   F   F   F
  0.6707717311536520  0.0074060783023377  0.2950088182591445   T   T   T
  0.8878998474979082  0.1112321841385865  0.1935243603741618   T   T   T
  0.7777799964712386  0.2222200036741526  0.0963300019624427   F   F   F
  0.0000000000742162  0.3333300054339077  0.0000000000000000   F   F   F
  0.9948884342271918  0.3347282804363513  0.2886559536782177   T   T   T
  0.2245621581579823  0.4447445024521273  0.1956230726655481   T   T   T
  0.1111100018189788  0.5555599928527215  0.0963300019624427   F   F   F
  0.3333300053596986  0.3333300054339077  0.0000000000000000   F   F   F
  0.3316541356657990  0.3303173371223873  0.3279510775140764   T   T   T
  0.5537755654636525  0.4447568072947093  0.1953192001409825   T   T   T
  0.4444400072383843  0.5555599928527215  0.0963300019624427   F   F   F
  0.6666700244391919  0.3333300054339077  0.0000000000000000   F   F   F
  0.6734834329029842  0.3348504010372741  0.2883604376006587   T   T   T
  0.8894988049708344  0.4455140809996638  0.1920308201106429   T   T   T
  0.7777799964531482  0.5555599928527215  0.0963300019624427   F   F   F
  0.9999999999795932  0.6666700244580994  0.0000000000000000   F   F   F
  0.0001876749684342  0.6669613774794790  0.2883869505172192   T   T   T
  0.2224841145047018  0.7767760187158373  0.1930550988065221   T   T   T
  0.1111100017393554  0.8888900279776095  0.0963300019624427   F   F   F
  0.3333300053989987  0.6666700244580994  0.0000000000000000   F   F   F
  0.3284798910655473  0.6725296301525124  0.2940517844203164   T   T   T
  0.5552692711543863  0.7777341136626647  0.1929159425333028   T   T   T
  0.4444400071587609  0.8888900279776095  0.0963300019624427   F   F   F
  0.6666700244784991  0.6666700244580994  0.0000000000000000   F   F   F
  0.6766647069988779  0.6725714442855775  0.2933486901375992   T   T   T
  0.8877958375193620  0.7767457446583728  0.1928669926758815   T   T   T
  0.7777799963735177  0.8888900279776095  0.0963300019624427   F   F   F
  0.6939640236404343  0.3325445484312912  0.4670751857315766   T   T   T
  0.8172382258498997  0.4255053503425217  0.5006127853647477   T   T   T
  0.5607238150767954  0.2118068994667656  0.4924379965473902   T   T   T
  0.7489411952854541  0.2609081568856333  0.4329520534565844   T   T   T
  0.6491642493821588  0.4323403238514896  0.4421352954133912   T   T   T
  0.5558177747546571  0.7769519968707972  0.3478898900983872   T   T   T
 
  0.00000000E+00  0.00000000E+00  0.00000000E+00
  0.00000000E+00  0.00000000E+00  0.00000000E+00
  0.00000000E+00  0.00000000E+00  0.00000000E+00
  0.00000000E+00  0.00000000E+00  0.00000000E+00
  0.00000000E+00  0.00000000E+00  0.00000000E+00
  0.00000000E+00  0.00000000E+00  0.00000000E+00
  0.00000000E+00  0.00000000E+00  0.00000000E+00
  0.00000000E+00  0.00000000E+00  0.00000000E+00
  0.00000000E+00  0.00000000E+00  0.00000000E+00
  0.00000000E+00  0.00000000E+00  0.00000000E+00
  0.00000000E+00  0.00000000E+00  0.00000000E+00
  0.00000000E+00  0.00000000E+00  0.00000000E+00
  0.00000000E+00  0.00000000E+00  0.00000000E+00
  0.00000000E+00  0.00000000E+00  0.00000000E+00
  0.00000000E+00  0.00000000E+00  0.00000000E+00
  0.00000000E+00  0.00000000E+00  0.00000000E+00
  0.00000000E+00  0.00000000E+00  0.00000000E+00
  0.00000000E+00  0.00000000E+00  0.00000000E+00
  0.00000000E+00  0.00000000E+00  0.00000000E+00
  0.00000000E+00  0.00000000E+00  0.00000000E+00
  0.00000000E+00  0.00000000E+00  0.00000000E+00
  0.00000000E+00  0.00000000E+00  0.00000000E+00
  0.00000000E+00  0.00000000E+00  0.00000000E+00
  0.00000000E+00  0.00000000E+00  0.00000000E+00
  0.00000000E+00  0.00000000E+00  0.00000000E+00
  0.00000000E+00  0.00000000E+00  0.00000000E+00
  0.00000000E+00  0.00000000E+00  0.00000000E+00
  0.00000000E+00  0.00000000E+00  0.00000000E+00
  0.00000000E+00  0.00000000E+00  0.00000000E+00
  0.00000000E+00  0.00000000E+00  0.00000000E+00
  0.00000000E+00  0.00000000E+00  0.00000000E+00
  0.00000000E+00  0.00000000E+00  0.00000000E+00
  0.00000000E+00  0.00000000E+00  0.00000000E+00
  0.00000000E+00  0.00000000E+00  0.00000000E+00
  0.00000000E+00  0.00000000E+00  0.00000000E+00
  0.00000000E+00  0.00000000E+00  0.00000000E+00
  0.00000000E+00  0.00000000E+00  0.00000000E+00
  0.00000000E+00  0.00000000E+00  0.00000000E+00
  0.00000000E+00  0.00000000E+00  0.00000000E+00
  0.00000000E+00  0.00000000E+00  0.00000000E+00
  0.00000000E+00  0.00000000E+00  0.00000000E+00
  0.00000000E+00  0.00000000E+00  0.00000000E+00
