Ag Co Ag O  C  H                        
   1.00000000000000     
    12.4799995421999999    0.0000000000000000    0.0000000000000000
     0.0000000000000000    8.8247003554999992    0.0000000000000000
     0.0000000000000000    0.0000000000000000   19.4123001098999985
   Ag   Co   Ag   O    C    H 
    16     1    19     1     1     4
Selective dynamics
Direct
  0.9912747224783018  0.0006787170498638  0.2305196860892146   T   T   T
  0.1697046106768445  0.1734844284963759  0.1579496158581779   T   T   T
  0.1666699945754431  0.1666699946455736  0.0000000000000000   F   F   F
  0.0000000000000000  0.0000000000000000  0.0757699981286564   F   F   F
  0.3428911624298325  0.0103447751292173  0.2303240275379083   T   T   T
  0.4994055696823111  0.1702424119243247  0.1571948542858028   T   T   T
  0.4999999999919851  0.1666699946455736  0.0000000000000000   F   F   F
  0.3333300054165420  0.0000000000000000  0.0757699981286564   F   F   F
  0.6654633542690997  0.9999721128272022  0.2292940627147407   T   T   T
  0.8323061250524095  0.1656242703225748  0.1557816093921970   T   T   T
  0.8333299756008401  0.1666699946455736  0.0000000000000000   F   F   F
  0.6666700243751222  0.0000000000000000  0.0757699981286564   F   F   F
  0.9964517637782697  0.3354624198552612  0.2283809937142633   T   T   T
  0.1668580906798961  0.4973844174631209  0.1569749034529414   T   T   T
  0.1666699945754431  0.5000000000283293  0.0000000000000000   F   F   F
  0.0000000000000000  0.3333300053827557  0.0757699981286564   F   F   F
  0.3365800300015319  0.3441635082243297  0.2119289362444524   T   T   T
  0.5012968160004710  0.4985916803848867  0.1564924493068170   T   T   T
  0.4999999999919851  0.5000000000283293  0.0000000000000000   F   F   F
  0.3333300054165420  0.3333300053827557  0.0757699981286564   F   F   F
  0.6682514882966062  0.3331710130620154  0.2292517974819460   T   T   T
  0.8320995241037200  0.5003054586902377  0.1559597953626116   T   T   T
  0.8333299756008401  0.5000000000283293  0.0000000000000000   F   F   F
  0.6666700243751222  0.3333300053827557  0.0757699981286564   F   F   F
  0.9975690800701329  0.6644120788524661  0.2280747926079193   T   T   T
  0.1673827403672084  0.8289964151667290  0.1555712649234056   T   T   T
  0.1666699945754431  0.8333299756083719  0.0000000000000000   F   F   F
  0.0000000000000000  0.6666700243632988  0.0757699981286564   F   F   F
  0.3353880512709225  0.6576242798679298  0.2270213191576141   T   T   T
  0.4997813922838371  0.8347514355550719  0.1558641738095665   T   T   T
  0.4999999999919851  0.8333299756083719  0.0000000000000000   F   F   F
  0.3333300054165420  0.6666700243632988  0.0757699981286564   F   F   F
  0.6662880566033853  0.6668405485374401  0.2289696634203826   T   T   T
  0.8321884186699654  0.8340879773615755  0.1561597568537078   T   T   T
  0.8333299756008401  0.8333299756083719  0.0000000000000000   F   F   F
  0.6666700243751222  0.6666700243632988  0.0757699981286564   F   F   F
  0.1670754431654389  0.9951644972888802  0.2501772940996015   T   T   T
  0.3347057307069735  0.3406693624589713  0.3642807981633273   T   T   T
  0.3763666841879438  0.4240349749272560  0.3319070771456983   T   T   T
  0.2763968429084059  0.3998800476404837  0.3963905968242931   T   T   T
  0.3936057802725438  0.2827053408644075  0.3963797362424896   T   T   T
  0.2926864760470314  0.2568489378861353  0.3326064393055927   T   T   T
 
  0.00000000E+00  0.00000000E+00  0.00000000E+00
  0.00000000E+00  0.00000000E+00  0.00000000E+00
  0.00000000E+00  0.00000000E+00  0.00000000E+00
  0.00000000E+00  0.00000000E+00  0.00000000E+00
  0.00000000E+00  0.00000000E+00  0.00000000E+00
  0.00000000E+00  0.00000000E+00  0.00000000E+00
  0.00000000E+00  0.00000000E+00  0.00000000E+00
  0.00000000E+00  0.00000000E+00  0.00000000E+00
  0.00000000E+00  0.00000000E+00  0.00000000E+00
  0.00000000E+00  0.00000000E+00  0.00000000E+00
  0.00000000E+00  0.00000000E+00  0.00000000E+00
  0.00000000E+00  0.00000000E+00  0.00000000E+00
  0.00000000E+00  0.00000000E+00  0.00000000E+00
  0.00000000E+00  0.00000000E+00  0.00000000E+00
  0.00000000E+00  0.00000000E+00  0.00000000E+00
  0.00000000E+00  0.00000000E+00  0.00000000E+00
  0.00000000E+00  0.00000000E+00  0.00000000E+00
  0.00000000E+00  0.00000000E+00  0.00000000E+00
  0.00000000E+00  0.00000000E+00  0.00000000E+00
  0.00000000E+00  0.00000000E+00  0.00000000E+00
  0.00000000E+00  0.00000000E+00  0.00000000E+00
  0.00000000E+00  0.00000000E+00  0.00000000E+00
  0.00000000E+00  0.00000000E+00  0.00000000E+00
  0.00000000E+00  0.00000000E+00  0.00000000E+00
  0.00000000E+00  0.00000000E+00  0.00000000E+00
  0.00000000E+00  0.00000000E+00  0.00000000E+00
  0.00000000E+00  0.00000000E+00  0.00000000E+00
  0.00000000E+00  0.00000000E+00  0.00000000E+00
  0.00000000E+00  0.00000000E+00  0.00000000E+00
  0.00000000E+00  0.00000000E+00  0.00000000E+00
  0.00000000E+00  0.00000000E+00  0.00000000E+00
  0.00000000E+00  0.00000000E+00  0.00000000E+00
  0.00000000E+00  0.00000000E+00  0.00000000E+00
  0.00000000E+00  0.00000000E+00  0.00000000E+00
  0.00000000E+00  0.00000000E+00  0.00000000E+00
  0.00000000E+00  0.00000000E+00  0.00000000E+00
  0.00000000E+00  0.00000000E+00  0.00000000E+00
  0.00000000E+00  0.00000000E+00  0.00000000E+00
  0.00000000E+00  0.00000000E+00  0.00000000E+00
  0.00000000E+00  0.00000000E+00  0.00000000E+00
  0.00000000E+00  0.00000000E+00  0.00000000E+00
  0.00000000E+00  0.00000000E+00  0.00000000E+00
