Au Pd Au O                              
   1.00000000000000     
     8.8458995818999995    0.0000000000000000    0.0000000000000000
    -4.4229497909999997    7.6607737573000003    0.0000000000000000
     0.0000000000000000    0.0000000000000000   22.2227001189999989
   Au   Pd   Au   O 
    17     1    18     1
Selective dynamics
Direct
  0.0000000000000000  0.0000000000000000  0.0000000000000000   F   F   F
  0.0055997545987068  0.0050534207731881  0.3300065096830399   T   T   T
  0.2237156360546208  0.1136170487563769  0.2189461081337881   T   T   T
  0.1111100036335770  0.2222200072646459  0.1083399993748557   F   F   F
  0.3333300181287697  0.0000000000000000  0.0000000000000000   F   F   F
  0.3345469534557164  0.0046389582091786  0.3298178938973807   T   T   T
  0.5549915775786725  0.1103795961873021  0.2176040460036018   T   T   T
  0.4444399948572268  0.2222200072646459  0.1083399993748557   F   F   F
  0.6666700087876549  0.0000000000000000  0.0000000000000000   F   F   F
  0.6699111561996036  0.0047500676962260  0.3288835108053954   T   T   T
  0.8898033638268352  0.1106645163544581  0.2177405194879658   T   T   T
  0.7777800124212320  0.2222200072646459  0.1083399993748557   F   F   F
  0.9999999925351943  0.3333300031953925  0.0000000000000000   F   F   F
  0.9986397033836596  0.3322717938984427  0.3287759199810398   T   T   T
  0.2238058648153181  0.4455581952108880  0.2194460083812392   T   T   T
  0.1111100262929554  0.5555600161073073  0.1083399993748557   F   F   F
  0.3333300106639641  0.3333300031953925  0.0000000000000000   F   F   F
  0.3314130495442853  0.3286716622314967  0.3263181003651950   T   T   T
  0.5553450618411951  0.4452890237005749  0.2191263866361702   T   T   T
  0.4444400175166052  0.5555600161073073  0.1083399993748557   F   F   F
  0.6666700147754128  0.3333300031953925  0.0000000000000000   F   F   F
  0.6685636107554734  0.3324695012095242  0.3277945943120327   T   T   T
  0.8902882223055411  0.4461325823547374  0.2177359133394275   T   T   T
  0.7777800080624431  0.5555600161073073  0.1083399993748557   F   F   F
  0.0000000093958050  0.6666700275717332  0.0000000000000000   F   F   F
  0.0032593253851054  0.6700666529639911  0.3300144765799968   T   T   T
  0.2248176664395722  0.7771499335898699  0.2193787039545572   T   T   T
  0.1111100207962252  0.8888900503700583  0.1083399993748557   F   F   F
  0.3333300276376221  0.6666700275717332  0.0000000000000000   F   F   F
  0.3267632786731813  0.6770897572549621  0.3341426483728679   T   T   T
  0.5555514037868224  0.7768536032269640  0.2196558252587290   T   T   T
  0.4444400120198750  0.8888900503700583  0.1083399993748557   F   F   F
  0.6666700181834599  0.6666700275717332  0.0000000000000000   F   F   F
  0.6867087856329926  0.6775572251681929  0.3328962555745636   T   T   T
  0.8872010818054625  0.7773920217027056  0.2192668532600483   T   T   T
  0.7777800026787602  0.8888900503700583  0.1083399993748557   F   F   F
  0.4402985228592652  0.5414481357035786  0.3823481898167194   T   T   T
 
  0.00000000E+00  0.00000000E+00  0.00000000E+00
  0.00000000E+00  0.00000000E+00  0.00000000E+00
  0.00000000E+00  0.00000000E+00  0.00000000E+00
  0.00000000E+00  0.00000000E+00  0.00000000E+00
  0.00000000E+00  0.00000000E+00  0.00000000E+00
  0.00000000E+00  0.00000000E+00  0.00000000E+00
  0.00000000E+00  0.00000000E+00  0.00000000E+00
  0.00000000E+00  0.00000000E+00  0.00000000E+00
  0.00000000E+00  0.00000000E+00  0.00000000E+00
  0.00000000E+00  0.00000000E+00  0.00000000E+00
  0.00000000E+00  0.00000000E+00  0.00000000E+00
  0.00000000E+00  0.00000000E+00  0.00000000E+00
  0.00000000E+00  0.00000000E+00  0.00000000E+00
  0.00000000E+00  0.00000000E+00  0.00000000E+00
  0.00000000E+00  0.00000000E+00  0.00000000E+00
  0.00000000E+00  0.00000000E+00  0.00000000E+00
  0.00000000E+00  0.00000000E+00  0.00000000E+00
  0.00000000E+00  0.00000000E+00  0.00000000E+00
  0.00000000E+00  0.00000000E+00  0.00000000E+00
  0.00000000E+00  0.00000000E+00  0.00000000E+00
  0.00000000E+00  0.00000000E+00  0.00000000E+00
  0.00000000E+00  0.00000000E+00  0.00000000E+00
  0.00000000E+00  0.00000000E+00  0.00000000E+00
  0.00000000E+00  0.00000000E+00  0.00000000E+00
  0.00000000E+00  0.00000000E+00  0.00000000E+00
  0.00000000E+00  0.00000000E+00  0.00000000E+00
  0.00000000E+00  0.00000000E+00  0.00000000E+00
  0.00000000E+00  0.00000000E+00  0.00000000E+00
  0.00000000E+00  0.00000000E+00  0.00000000E+00
  0.00000000E+00  0.00000000E+00  0.00000000E+00
  0.00000000E+00  0.00000000E+00  0.00000000E+00
  0.00000000E+00  0.00000000E+00  0.00000000E+00
  0.00000000E+00  0.00000000E+00  0.00000000E+00
  0.00000000E+00  0.00000000E+00  0.00000000E+00
  0.00000000E+00  0.00000000E+00  0.00000000E+00
  0.00000000E+00  0.00000000E+00  0.00000000E+00
  0.00000000E+00  0.00000000E+00  0.00000000E+00
