Pd Cu Pd O                              
   1.00000000000000     
     8.4004001617000004    0.0000000000000000    0.0000000000000000
    -4.2002000809000002    7.2749599419999997    0.0000000000000000
     0.0000000000000000    0.0000000000000000   21.8589000702000007
   Pd   Cu   Pd   O 
    17     1    18     1
Selective dynamics
Direct
  0.0000000000000000  0.0000000000000000  0.0000000000000000   F   F   F
  0.0046806490764215  0.0000919507764257  0.3182106430320703   T   T   T
  0.2230595855591336  0.1107143038056398  0.2107480325467565   T   T   T
  0.1111100018356126  0.2222200036685749  0.1045899987034034   F   F   F
  0.3333300053688575  0.0000000000000000  0.0000000000000000   F   F   F
  0.3365882894599915  0.0038071337298547  0.3158907045766985   T   T   T
  0.5567086983505272  0.1098332827074721  0.2096442144763216   T   T   T
  0.4444400072044701  0.2222200036685749  0.1045899987034034   F   F   F
  0.6666700244273471  0.0000000000000000  0.0000000000000000   F   F   F
  0.6681918015101090  0.9974903925703222  0.3171235192555301   T   T   T
  0.8907926794831633  0.1109742573795514  0.2118543877299267   T   T   T
  0.7777799963834298  0.2222200036685749  0.1045899987034034   F   F   F
  0.9999999999751026  0.3333300054341350  0.0000000000000000   F   F   F
  0.0024795634616825  0.3234179016586574  0.3193476071290229   T   T   T
  0.2232342421137646  0.4434894489295327  0.2106547620509544   T   T   T
  0.1111100017544544  0.5555599928003048  0.1045899987034034   F   F   F
  0.3333300054630044  0.3333300054341350  0.0000000000000000   F   F   F
  0.3367335561883859  0.3295890897416920  0.3104779649777858   T   T   T
  0.5560884400104101  0.4436445569007890  0.2106730955512437   T   T   T
  0.4444400072423562  0.5555599928003048  0.1045899987034034   F   F   F
  0.6666700244024497  0.3333300054341350  0.0000000000000000   F   F   F
  0.6616233342421279  0.3287059061044738  0.3158556988600471   T   T   T
  0.8898059852117112  0.4434647884762689  0.2105390537688684   T   T   T
  0.7777799964213159  0.5555599928003048  0.1045899987034034   F   F   F
  0.0000000000469171  0.6666700243942074  0.0000000000000000   F   F   F
  0.9983642314087586  0.6680192459615636  0.3196415380048271   T   T   T
  0.2232102834936439  0.7766145677334060  0.2105196217541316   T   T   T
  0.1111100018825297  0.8888900280627823  0.1045899987034034   F   F   F
  0.3333300054157746  0.6666700243942074  0.0000000000000000   F   F   F
  0.3428129005399343  0.6630110021269768  0.3193080372480500   T   T   T
  0.5558650204796927  0.7759646287476295  0.2117587793644224   T   T   T
  0.4444400072513872  0.8888900280627823  0.1045899987034034   F   F   F
  0.6666700243552199  0.6666700243942074  0.0000000000000000   F   F   F
  0.6663369368127640  0.6607895153663127  0.3179112010031562   T   T   T
  0.8910770432203849  0.7764855931809107  0.2121423382583186   T   T   T
  0.7777799964303469  0.8888900280627823  0.1045899987034034   F   F   F
  0.1132460492218543  0.5530104196875851  0.3711796816187652   T   T   T
 
  0.00000000E+00  0.00000000E+00  0.00000000E+00
  0.00000000E+00  0.00000000E+00  0.00000000E+00
  0.00000000E+00  0.00000000E+00  0.00000000E+00
  0.00000000E+00  0.00000000E+00  0.00000000E+00
  0.00000000E+00  0.00000000E+00  0.00000000E+00
  0.00000000E+00  0.00000000E+00  0.00000000E+00
  0.00000000E+00  0.00000000E+00  0.00000000E+00
  0.00000000E+00  0.00000000E+00  0.00000000E+00
  0.00000000E+00  0.00000000E+00  0.00000000E+00
  0.00000000E+00  0.00000000E+00  0.00000000E+00
  0.00000000E+00  0.00000000E+00  0.00000000E+00
  0.00000000E+00  0.00000000E+00  0.00000000E+00
  0.00000000E+00  0.00000000E+00  0.00000000E+00
  0.00000000E+00  0.00000000E+00  0.00000000E+00
  0.00000000E+00  0.00000000E+00  0.00000000E+00
  0.00000000E+00  0.00000000E+00  0.00000000E+00
  0.00000000E+00  0.00000000E+00  0.00000000E+00
  0.00000000E+00  0.00000000E+00  0.00000000E+00
  0.00000000E+00  0.00000000E+00  0.00000000E+00
  0.00000000E+00  0.00000000E+00  0.00000000E+00
  0.00000000E+00  0.00000000E+00  0.00000000E+00
  0.00000000E+00  0.00000000E+00  0.00000000E+00
  0.00000000E+00  0.00000000E+00  0.00000000E+00
  0.00000000E+00  0.00000000E+00  0.00000000E+00
  0.00000000E+00  0.00000000E+00  0.00000000E+00
  0.00000000E+00  0.00000000E+00  0.00000000E+00
  0.00000000E+00  0.00000000E+00  0.00000000E+00
  0.00000000E+00  0.00000000E+00  0.00000000E+00
  0.00000000E+00  0.00000000E+00  0.00000000E+00
  0.00000000E+00  0.00000000E+00  0.00000000E+00
  0.00000000E+00  0.00000000E+00  0.00000000E+00
  0.00000000E+00  0.00000000E+00  0.00000000E+00
  0.00000000E+00  0.00000000E+00  0.00000000E+00
  0.00000000E+00  0.00000000E+00  0.00000000E+00
  0.00000000E+00  0.00000000E+00  0.00000000E+00
  0.00000000E+00  0.00000000E+00  0.00000000E+00
  0.00000000E+00  0.00000000E+00  0.00000000E+00
