Ag Hf Ag O                              
   1.00000000000000     
     8.8247003554999992    0.0000000000000000    0.0000000000000000
    -4.4123501777999996    7.6424146886999997    0.0000000000000000
     0.0000000000000000    0.0000000000000000   22.2052993773999994
   Ag   Hf   Ag   O 
    17     1    18     1
Selective dynamics
Direct
     0.0000000000000000    0.0000000000000000    0.0000000000000000   F   F   F
     0.0035868154277703    0.9927602195649453    0.3236293605336784   T   T   T
     0.2279074866832844    0.1093597704193179    0.2181747268015606   T   T   T
     0.1111100018250966    0.2222200036476778    0.1081599965476912   F   F   F
     0.3333300053827557    0.0000000000000000    0.0000000000000000   F   F   F
     0.3390735707932887    0.9871633551193254    0.3257118867481694   T   T   T
     0.5588446855076799    0.1078141124700959    0.2174205317461367   T   T   T
     0.4444400072078523    0.2222200036476778    0.1081599965476912   F   F   F
     0.6666700243632988    0.0000000000000000    0.0000000000000000   F   F   F
     0.6740042430685935    0.9926690484829511    0.3240979004480967   T   T   T
     0.8925005242648836    0.1081065762124097    0.2158061810887430   T   T   T
     0.7777799963856893    0.2222200036476778    0.1081599965476912   F   F   F
     0.9999999999896119    0.3333300054715238    0.0000000000000000   F   F   F
     0.0082410097628378    0.3272587697381434    0.3252597463227765   T   T   T
     0.2253201251714832    0.4413363885236251    0.2151804184965967   T   T   T
     0.1111100017295215    0.5555599927438948    0.1081599965476912   F   F   F
     0.3333300054856849    0.3333300054715238    0.0000000000000000   F   F   F
     0.3414775390923240    0.3251872577456718    0.3364501415980505   T   T   T
     0.5573669945140368    0.4387967289047884    0.2181940420714235   T   T   T
     0.4444400072255874    0.5555599927438948    0.1081599965476912   F   F   F
     0.6666700244662280    0.3333300054715238    0.0000000000000000   F   F   F
     0.6795183774055790    0.3276116868982766    0.3257007728728865   T   T   T
     0.8920211136095682    0.4404197254350048    0.2161963890017710   T   T   T
     0.7777799964034244    0.5555599927438948    0.1081599965476912   F   F   F
     0.9999999999660858    0.6666700244012347    0.0000000000000000   F   F   F
     0.0065877196821912    0.6600898969008835    0.3235755084661917   T   T   T
     0.2262985258716107    0.7746509204643790    0.2161938781046397   T   T   T
     0.1111100017911895    0.8888900280489196    0.1081599965476912   F   F   F
     0.3333300054621589    0.6666700244012347    0.0000000000000000   F   F   F
     0.3393423148973788    0.6583460932548426    0.3252572010876121   T   T   T
     0.5586349689906875    0.7742150833685102    0.2158064463638951   T   T   T
     0.4444400072872554    0.8888900280489196    0.1081599965476912   F   F   F
     0.6666700244427020    0.6666700244012347    0.0000000000000000   F   F   F
     0.6738959645363447    0.6630768061374438    0.3236218845742317   T   T   T
     0.8931407964627821    0.7735124496377651    0.2155891004704884   T   T   T
     0.7777799964650924    0.8888900280489196    0.1081599965476912   F   F   F
     0.4090128274575834    0.2576468019770415    0.4026925971192128   T   T   T
 
  0.00000000E+00  0.00000000E+00  0.00000000E+00
  0.00000000E+00  0.00000000E+00  0.00000000E+00
  0.00000000E+00  0.00000000E+00  0.00000000E+00
  0.00000000E+00  0.00000000E+00  0.00000000E+00
  0.00000000E+00  0.00000000E+00  0.00000000E+00
  0.00000000E+00  0.00000000E+00  0.00000000E+00
  0.00000000E+00  0.00000000E+00  0.00000000E+00
  0.00000000E+00  0.00000000E+00  0.00000000E+00
  0.00000000E+00  0.00000000E+00  0.00000000E+00
  0.00000000E+00  0.00000000E+00  0.00000000E+00
  0.00000000E+00  0.00000000E+00  0.00000000E+00
  0.00000000E+00  0.00000000E+00  0.00000000E+00
  0.00000000E+00  0.00000000E+00  0.00000000E+00
  0.00000000E+00  0.00000000E+00  0.00000000E+00
  0.00000000E+00  0.00000000E+00  0.00000000E+00
  0.00000000E+00  0.00000000E+00  0.00000000E+00
  0.00000000E+00  0.00000000E+00  0.00000000E+00
  0.00000000E+00  0.00000000E+00  0.00000000E+00
  0.00000000E+00  0.00000000E+00  0.00000000E+00
  0.00000000E+00  0.00000000E+00  0.00000000E+00
  0.00000000E+00  0.00000000E+00  0.00000000E+00
  0.00000000E+00  0.00000000E+00  0.00000000E+00
  0.00000000E+00  0.00000000E+00  0.00000000E+00
  0.00000000E+00  0.00000000E+00  0.00000000E+00
  0.00000000E+00  0.00000000E+00  0.00000000E+00
  0.00000000E+00  0.00000000E+00  0.00000000E+00
  0.00000000E+00  0.00000000E+00  0.00000000E+00
  0.00000000E+00  0.00000000E+00  0.00000000E+00
  0.00000000E+00  0.00000000E+00  0.00000000E+00
  0.00000000E+00  0.00000000E+00  0.00000000E+00
  0.00000000E+00  0.00000000E+00  0.00000000E+00
  0.00000000E+00  0.00000000E+00  0.00000000E+00
  0.00000000E+00  0.00000000E+00  0.00000000E+00
  0.00000000E+00  0.00000000E+00  0.00000000E+00
  0.00000000E+00  0.00000000E+00  0.00000000E+00
  0.00000000E+00  0.00000000E+00  0.00000000E+00
  0.00000000E+00  0.00000000E+00  0.00000000E+00
