Ag Nb Ag O                              
   1.00000000000000     
    12.4799995421999999    0.0000000000000000    0.0000000000000000
     0.0000000000000000    8.8247003554999992    0.0000000000000000
     0.0000000000000000    0.0000000000000000   19.4123001098999985
   Ag   Nb   Ag   O 
    16     1    19     1
Selective dynamics
Direct
     0.0003506648902636    0.0033572698990352    0.2229427599118127   T   T   T
     0.1672988036794262    0.1712358923247572    0.1561132450190327   T   T   T
     0.1666699945754431    0.1666699946455736    0.0000000000000000   F   F   F
     0.0000000000000000    0.0000000000000000    0.0757699981286564   F   F   F
     0.3325278005919463    0.0050545125133364    0.2232227157670770   T   T   T
     0.4987471276301851    0.1716657340199489    0.1570104936757435   T   T   T
     0.4999999999919851    0.1666699946455736    0.0000000000000000   F   F   F
     0.3333300054165420    0.0000000000000000    0.0757699981286564   F   F   F
     0.6674164074583692    0.0052784759919099    0.2236149484385704   T   T   T
     0.8337165118218397    0.1702446515737664    0.1544867875356999   T   T   T
     0.8333299756008401    0.1666699946455736    0.0000000000000000   F   F   F
     0.6666700243751222    0.0000000000000000    0.0757699981286564   F   F   F
     0.0005388512468842    0.3357957472663316    0.2248140531244501   T   T   T
     0.1666857462337697    0.4995596589068205    0.1564289382215844   T   T   T
     0.1666699945754431    0.5000000000283293    0.0000000000000000   F   F   F
     0.0000000000000000    0.3333300053827557    0.0757699981286564   F   F   F
     0.3313264076905689    0.3364007792573587    0.2323953848471319   T   T   T
     0.4987996671073582    0.4999363348270476    0.1567954780983383   T   T   T
     0.4999999999919851    0.5000000000283293    0.0000000000000000   F   F   F
     0.3333300054165420    0.3333300053827557    0.0757699981286564   F   F   F
     0.6672950733721599    0.3385104019830247    0.2239269249523141   T   T   T
     0.8331000687510541    0.5023132222143529    0.1543896856858964   T   T   T
     0.8333299756008401    0.5000000000283293    0.0000000000000000   F   F   F
     0.6666700243751222    0.3333300053827557    0.0757699981286564   F   F   F
     0.9998305635730568    0.6698161037367470    0.2234807347351751   T   T   T
     0.1671274012072323    0.8346276382807609    0.1534937710502464   T   T   T
     0.1666699945754431    0.8333299756083719    0.0000000000000000   F   F   F
     0.0000000000000000    0.6666700243632988    0.0757699981286564   F   F   F
     0.3320239065796647    0.6677777688082092    0.2241398167703477   T   T   T
     0.4993635590339590    0.8350623972674335    0.1544153888547501   T   T   T
     0.4999999999919851    0.8333299756083719    0.0000000000000000   F   F   F
     0.3333300054165420    0.6666700243632988    0.0757699981286564   F   F   F
     0.6665233047470622    0.6726071483062587    0.2231872802672971   T   T   T
     0.8339879090834285    0.8362236785453514    0.1543741538477035   T   T   T
     0.8333299756008401    0.8333299756083719    0.0000000000000000   F   F   F
     0.6666700243751222    0.6666700243632988    0.0757699981286564   F   F   F
     0.3288742527439637    0.3327064249845602    0.3205324719442343   T   T   T
 
  0.00000000E+00  0.00000000E+00  0.00000000E+00
  0.00000000E+00  0.00000000E+00  0.00000000E+00
  0.00000000E+00  0.00000000E+00  0.00000000E+00
  0.00000000E+00  0.00000000E+00  0.00000000E+00
  0.00000000E+00  0.00000000E+00  0.00000000E+00
  0.00000000E+00  0.00000000E+00  0.00000000E+00
  0.00000000E+00  0.00000000E+00  0.00000000E+00
  0.00000000E+00  0.00000000E+00  0.00000000E+00
  0.00000000E+00  0.00000000E+00  0.00000000E+00
  0.00000000E+00  0.00000000E+00  0.00000000E+00
  0.00000000E+00  0.00000000E+00  0.00000000E+00
  0.00000000E+00  0.00000000E+00  0.00000000E+00
  0.00000000E+00  0.00000000E+00  0.00000000E+00
  0.00000000E+00  0.00000000E+00  0.00000000E+00
  0.00000000E+00  0.00000000E+00  0.00000000E+00
  0.00000000E+00  0.00000000E+00  0.00000000E+00
  0.00000000E+00  0.00000000E+00  0.00000000E+00
  0.00000000E+00  0.00000000E+00  0.00000000E+00
  0.00000000E+00  0.00000000E+00  0.00000000E+00
  0.00000000E+00  0.00000000E+00  0.00000000E+00
  0.00000000E+00  0.00000000E+00  0.00000000E+00
  0.00000000E+00  0.00000000E+00  0.00000000E+00
  0.00000000E+00  0.00000000E+00  0.00000000E+00
  0.00000000E+00  0.00000000E+00  0.00000000E+00
  0.00000000E+00  0.00000000E+00  0.00000000E+00
  0.00000000E+00  0.00000000E+00  0.00000000E+00
  0.00000000E+00  0.00000000E+00  0.00000000E+00
  0.00000000E+00  0.00000000E+00  0.00000000E+00
  0.00000000E+00  0.00000000E+00  0.00000000E+00
  0.00000000E+00  0.00000000E+00  0.00000000E+00
  0.00000000E+00  0.00000000E+00  0.00000000E+00
  0.00000000E+00  0.00000000E+00  0.00000000E+00
  0.00000000E+00  0.00000000E+00  0.00000000E+00
  0.00000000E+00  0.00000000E+00  0.00000000E+00
  0.00000000E+00  0.00000000E+00  0.00000000E+00
  0.00000000E+00  0.00000000E+00  0.00000000E+00
  0.00000000E+00  0.00000000E+00  0.00000000E+00
