Ag   V    Ag   O    C    H              
   1.00000000000000     
     8.8247003554999992    0.0000000000000000    0.0000000000000000
    -4.4123501777999996    7.6424146886999997    0.0000000000000000
     0.0000000000000000    0.0000000000000000   22.2052993773999994
   Ag   V    Ag   O    C    H 
    17     1    18     1     1     4
Selective dynamics
Direct
  0.0000000000000000  0.0000000000000000  0.0000000000000000   F   F   F
  0.9944118453731079  0.0060164230642954  0.3289300394406638   T   T   T
  0.2214541705815876  0.1156179082124993  0.2207428018281448   T   T   T
  0.1111101706199165  0.2222203412373176  0.1081602170355964   F   F   F
  0.3333302980839079  0.0000000000000000  0.0000000000000000   F   F   F
  0.3141244782939125  0.9846848550533309  0.3250395267062203   T   T   T
  0.5544178210167487  0.1121491092687350  0.2189896167285710   T   T   T
  0.4444404687038244  0.2222203412373176  0.1081602170355964   F   F   F
  0.6666696616314383  0.0000000000000000  0.0000000000000000   F   F   F
  0.6613876759068305  0.0044710999588276  0.3394108708874555   T   T   T
  0.8840648735533492  0.1120077926765362  0.2199182238889392   T   T   T
  0.7777798322513547  0.2222203412373176  0.1081602170355964   F   F   F
  0.0000001068879243  0.3333305118559764  0.0000000000000000   F   F   F
  0.0078907528818419  0.3360076761860213  0.3293659714150792   T   T   T
  0.2235181400169353  0.4431426634055242  0.2196489188055750   T   T   T
  0.1111103244804070  0.5555600125020490  0.1081602170355964   F   F   F
  0.3333304049718322  0.3333305118559764  0.0000000000000000   F   F   F
  0.3381166217994291  0.3281489034752454  0.3338243666079279   T   T   T
  0.5510936127727959  0.4450295016088077  0.2207693720621222   T   T   T
  0.4444394893813666  0.5555600125020490  0.1081602170355964   F   F   F
  0.6666697685193554  0.3333305118559764  0.0000000000000000   F   F   F
  0.6814636883464900  0.3515865219893044  0.3251588675876462   T   T   T
  0.8884238228357688  0.4458381465530721  0.2173364077636251   T   T   T
  0.7777799861118453  0.5555600125020490  0.1081602170355964   F   F   F
  0.0000002607484149  0.6666701831207078  0.0000000000000000   F   F   F
  0.9958286926660449  0.6701507584471571  0.3269291657192710   T   T   T
  0.2207401832880223  0.7781807507506002  0.2172832672956702   T   T   T
  0.1111104313683313  0.8888905243580254  0.1081602170355964   F   F   F
  0.3333305588323228  0.6666701831207078  0.0000000000000000   F   F   F
  0.3299762430420188  0.6582867071370302  0.3293704748445663   T   T   T
  0.5545594298554661  0.7824856728649010  0.2199461451517664   T   T   T
  0.4444407294522392  0.8888905243580254  0.1081602170355964   F   F   F
  0.6666699223798460  0.6666701831207078  0.0000000000000000   F   F   F
  0.6599497966887924  0.6714945745600360  0.3289012174919463   T   T   T
  0.8871957666251404  0.7794931631763262  0.2175007829399291   T   T   T
  0.7777800929997625  0.8888905243580254  0.1081602170355964   F   F   F
  0.5157932013525368  0.1496346438372242  0.3906905217783105   T   T   T
  0.3556980989769514  0.3115729906047591  0.4345732897355745   T   T   T
  0.2870937093796400  0.3802227592146394  0.4160601414544729   T   T   T
  0.2585039777979645  0.2055004948007024  0.4623833178511347   T   T   T
  0.4622049169219196  0.4088773152574845  0.4621739083799596   T   T   T
  0.4271811636238922  0.2391482371013396  0.4084709620817577   T   T   T
 
  0.00000000E+00  0.00000000E+00  0.00000000E+00
  0.00000000E+00  0.00000000E+00  0.00000000E+00
  0.00000000E+00  0.00000000E+00  0.00000000E+00
  0.00000000E+00  0.00000000E+00  0.00000000E+00
  0.00000000E+00  0.00000000E+00  0.00000000E+00
  0.00000000E+00  0.00000000E+00  0.00000000E+00
  0.00000000E+00  0.00000000E+00  0.00000000E+00
  0.00000000E+00  0.00000000E+00  0.00000000E+00
  0.00000000E+00  0.00000000E+00  0.00000000E+00
  0.00000000E+00  0.00000000E+00  0.00000000E+00
  0.00000000E+00  0.00000000E+00  0.00000000E+00
  0.00000000E+00  0.00000000E+00  0.00000000E+00
  0.00000000E+00  0.00000000E+00  0.00000000E+00
  0.00000000E+00  0.00000000E+00  0.00000000E+00
  0.00000000E+00  0.00000000E+00  0.00000000E+00
  0.00000000E+00  0.00000000E+00  0.00000000E+00
  0.00000000E+00  0.00000000E+00  0.00000000E+00
  0.00000000E+00  0.00000000E+00  0.00000000E+00
  0.00000000E+00  0.00000000E+00  0.00000000E+00
  0.00000000E+00  0.00000000E+00  0.00000000E+00
  0.00000000E+00  0.00000000E+00  0.00000000E+00
  0.00000000E+00  0.00000000E+00  0.00000000E+00
  0.00000000E+00  0.00000000E+00  0.00000000E+00
  0.00000000E+00  0.00000000E+00  0.00000000E+00
  0.00000000E+00  0.00000000E+00  0.00000000E+00
  0.00000000E+00  0.00000000E+00  0.00000000E+00
  0.00000000E+00  0.00000000E+00  0.00000000E+00
  0.00000000E+00  0.00000000E+00  0.00000000E+00
  0.00000000E+00  0.00000000E+00  0.00000000E+00
  0.00000000E+00  0.00000000E+00  0.00000000E+00
  0.00000000E+00  0.00000000E+00  0.00000000E+00
  0.00000000E+00  0.00000000E+00  0.00000000E+00
  0.00000000E+00  0.00000000E+00  0.00000000E+00
  0.00000000E+00  0.00000000E+00  0.00000000E+00
  0.00000000E+00  0.00000000E+00  0.00000000E+00
  0.00000000E+00  0.00000000E+00  0.00000000E+00
  0.00000000E+00  0.00000000E+00  0.00000000E+00
  0.00000000E+00  0.00000000E+00  0.00000000E+00
  0.00000000E+00  0.00000000E+00  0.00000000E+00
  0.00000000E+00  0.00000000E+00  0.00000000E+00
  0.00000000E+00  0.00000000E+00  0.00000000E+00
  0.00000000E+00  0.00000000E+00  0.00000000E+00
