Ni  Au  Ni  C   H   O                   
   1.00000000000000     
     7.4670000076000003    0.0000000000000000    0.0000000000000000
    -3.7335000038000001    6.4666116967000002    0.0000000000000000
     0.0000000000000000    0.0000000000000000   21.0967998504999983
   Ni   Au   Ni   C    H    O 
    17     1    18     1     4     1
Selective dynamics
Direct
  0.0000000000000000  0.0000000000000000  0.0000000000000000   F   F   F
  0.9970316275363236  0.9916524174508655  0.2895002722776648   T   T   T
  0.2250228557501857  0.1146184021171862  0.1949604315082368   T   T   T
  0.1111099651099607  0.2222199302199215  0.0963297758144037   F   F   F
  0.3333306545422090  0.0000000000000000  0.0000000000000000   F   F   F
  0.3393279253811265  0.9977132551600915  0.2874310625245201   T   T   T
  0.5572681156024905  0.1102743577365203  0.1922103719256583   T   T   T
  0.4444406196521697  0.2222199302199215  0.0963297758144037   F   F   F
  0.6666706836659060  0.0000000000000000  0.0000000000000000   F   F   F
  0.6694119184786348  0.9972464900699433  0.2886321544720863   T   T   T
  0.8914747298436151  0.1113702304904751  0.1936265731258005   T   T   T
  0.7777793095499348  0.2222199302199215  0.0963297758144037   F   F   F
  0.0000000069950588  0.3333306685323336  0.0000000000000000   F   F   F
  0.9926664955894371  0.3248648735021273  0.2902845466372360   T   T   T
  0.2237104730723426  0.4430919449525820  0.1939559863579596   T   T   T
  0.1111105936419392  0.5555598771816364  0.0963297758144037   F   F   F
  0.3333306615372678  0.3333306685323336  0.0000000000000000   F   F   F
  0.3413135051421977  0.3246816551281768  0.3275756677263946   T   T   T
  0.5532641284688096  0.4426971065238651  0.1946783445911394   T   T   T
  0.4444399089582234  0.5555598771816364  0.0963297758144037   F   F   F
  0.6666706906609647  0.3333306685323336  0.0000000000000000   F   F   F
  0.6683674038618002  0.3278416941126558  0.2873073844923791   T   T   T
  0.8903450670480965  0.4450054986557152  0.1927608366490464   T   T   T
  0.7777799380819133  0.5555598771816364  0.0963297758144037   F   F   F
  0.0000006345092203  0.6666706154940485  0.0000000000000000   F   F   F
  0.0004919280926824  0.6658295532505054  0.2948607585721341   T   T   T
  0.2221435094954272  0.7766296187543621  0.1927316128193992   T   T   T
  0.1111106006369980  0.8888905457139700  0.0963297758144037   F   F   F
  0.3333299508433214  0.6666706154940485  0.0000000000000000   F   F   F
  0.3413963897485918  0.6733374111130453  0.2902873269598954   T   T   T
  0.5557963124314996  0.7759968380148121  0.1936021516179896   T   T   T
  0.4444399159532821  0.8888905457139700  0.0963297758144037   F   F   F
  0.6666699799670113  0.6666706154940485  0.0000000000000000   F   F   F
  0.6744355282912958  0.6697199252832565  0.2894627047767286   T   T   T
  0.8917665748552802  0.7755424633131721  0.1943479173755971   T   T   T
  0.7777799450769720  0.8888905457139700  0.0963297758144037   F   F   F
  0.2753701474305115  0.3891758797565031  0.4360245631342735   T   T   T
  0.3656076407797778  0.5414840027230811  0.4578560197846218   T   T   T
  0.1227538790275614  0.2983890564447612  0.4576158340511196   T   T   T
  0.3591342586298159  0.3056002809769736  0.4436473907195655   T   T   T
  0.1930187978031535  0.4724884822841626  0.3875394322915340   T   T   T
  0.1212510152791717  0.5446589943783854  0.3527498662498528   T   T   T
 
  0.00000000E+00  0.00000000E+00  0.00000000E+00
  0.00000000E+00  0.00000000E+00  0.00000000E+00
  0.00000000E+00  0.00000000E+00  0.00000000E+00
  0.00000000E+00  0.00000000E+00  0.00000000E+00
  0.00000000E+00  0.00000000E+00  0.00000000E+00
  0.00000000E+00  0.00000000E+00  0.00000000E+00
  0.00000000E+00  0.00000000E+00  0.00000000E+00
  0.00000000E+00  0.00000000E+00  0.00000000E+00
  0.00000000E+00  0.00000000E+00  0.00000000E+00
  0.00000000E+00  0.00000000E+00  0.00000000E+00
  0.00000000E+00  0.00000000E+00  0.00000000E+00
  0.00000000E+00  0.00000000E+00  0.00000000E+00
  0.00000000E+00  0.00000000E+00  0.00000000E+00
  0.00000000E+00  0.00000000E+00  0.00000000E+00
  0.00000000E+00  0.00000000E+00  0.00000000E+00
  0.00000000E+00  0.00000000E+00  0.00000000E+00
  0.00000000E+00  0.00000000E+00  0.00000000E+00
  0.00000000E+00  0.00000000E+00  0.00000000E+00
  0.00000000E+00  0.00000000E+00  0.00000000E+00
  0.00000000E+00  0.00000000E+00  0.00000000E+00
  0.00000000E+00  0.00000000E+00  0.00000000E+00
  0.00000000E+00  0.00000000E+00  0.00000000E+00
  0.00000000E+00  0.00000000E+00  0.00000000E+00
  0.00000000E+00  0.00000000E+00  0.00000000E+00
  0.00000000E+00  0.00000000E+00  0.00000000E+00
  0.00000000E+00  0.00000000E+00  0.00000000E+00
  0.00000000E+00  0.00000000E+00  0.00000000E+00
  0.00000000E+00  0.00000000E+00  0.00000000E+00
  0.00000000E+00  0.00000000E+00  0.00000000E+00
  0.00000000E+00  0.00000000E+00  0.00000000E+00
  0.00000000E+00  0.00000000E+00  0.00000000E+00
  0.00000000E+00  0.00000000E+00  0.00000000E+00
  0.00000000E+00  0.00000000E+00  0.00000000E+00
  0.00000000E+00  0.00000000E+00  0.00000000E+00
  0.00000000E+00  0.00000000E+00  0.00000000E+00
  0.00000000E+00  0.00000000E+00  0.00000000E+00
  0.00000000E+00  0.00000000E+00  0.00000000E+00
  0.00000000E+00  0.00000000E+00  0.00000000E+00
  0.00000000E+00  0.00000000E+00  0.00000000E+00
  0.00000000E+00  0.00000000E+00  0.00000000E+00
  0.00000000E+00  0.00000000E+00  0.00000000E+00
  0.00000000E+00  0.00000000E+00  0.00000000E+00
