Cu W  Cu O                              
   1.00000000000000     
    10.9200000762999991    0.0000000000000000    0.0000000000000000
     0.0000000000000000    7.7216000556999997    0.0000000000000000
     0.0000000000000000    0.0000000000000000   18.8607997894000015
   Cu   W    Cu   O 
    16     1    19     1
Selective dynamics
Direct
 -0.0029603150752393 -0.0000266720656004  0.1996002339824263   T   T   T
  0.1649657880930927  0.1685817345883419  0.1409513195141213   T   T   T
  0.1666699946229926  0.1666699946535033  0.0000000000000000   F   F   F
  0.0000000000000000  0.0000000000000000  0.0682300030947403   F   F   F
  0.3325773018101161 -0.0017116220445128  0.1984679276835356   T   T   T
  0.5008603517330765  0.1676215296000446  0.1405142549476475   T   T   T
  0.4999999999862652  0.1666699946535033  0.0000000000000000   F   F   F
  0.3333300053632726  0.0000000000000000  0.0682300030947403   F   F   F
  0.6680242394223062 -0.0005466785081902  0.1998158018687419   T   T   T
  0.8323614765378352  0.1673894988764203  0.1377730929468911   T   T   T
  0.8333299755876311  0.1666699946535033  0.0000000000000000   F   F   F
  0.6666700243711574  0.0000000000000000  0.0682300030947403   F   F   F
 -0.0030411024700428  0.3333502394306143  0.2007228195438189   T   T   T
  0.1649475912787299  0.4977680991753362  0.1410114607096275   T   T   T
  0.1666699946229926  0.5000000000194262  0.0000000000000000   F   F   F
  0.0000000000000000  0.3333300053659229  0.0682300030947403   F   F   F
  0.3333642792356331  0.3331002110519680  0.2135493116240394   T   T   T
  0.5009158420067964  0.4987965922355225  0.1405027493779431   T   T   T
  0.4999999999862652  0.5000000000194262  0.0000000000000000   F   F   F
  0.3333300053632726  0.3333300053659229  0.0682300030947403   F   F   F
  0.6666002806405106  0.3331808332647782  0.2008013577291093   T   T   T
  0.8323677204894087  0.4994887026440674  0.1377872213264638   T   T   T
  0.8333299755876311  0.5000000000194262  0.0000000000000000   F   F   F
  0.6666700243711574  0.3333300053659229  0.0682300030947403   F   F   F
 -0.0029579303021429  0.6670877866621965  0.1995908158311931   T   T   T
  0.1647730978997385  0.8331489146501591  0.1382723547588457   T   T   T
  0.1666699946229926  0.8333299755987795  0.0000000000000000   F   F   F
  0.0000000000000000  0.6666700243299957  0.0682300030947403   F   F   F
  0.3326397815090796  0.6680539591636295  0.1984653277650273   T   T   T
  0.5008656652579550  0.8332166119136991  0.1384191772333750   T   T   T
  0.4999999999862652  0.8333299755987795  0.0000000000000000   F   F   F
  0.3333300053632726  0.6666700243299957  0.0682300030947403   F   F   F
  0.6680351414452127  0.6671305868408280  0.1997942750330553   T   T   T
  0.8327158782247092  0.8333918589482177  0.1375304767772235   T   T   T
  0.8333299755876311  0.8333299755987795  0.0000000000000000   F   F   F
  0.6666700243711574  0.6666700243299957  0.0682300030947403   F   F   F
  0.3343832807928770  0.3334126140542430  0.3048153982433036   T   T   T
 
  0.00000000E+00  0.00000000E+00  0.00000000E+00
  0.00000000E+00  0.00000000E+00  0.00000000E+00
  0.00000000E+00  0.00000000E+00  0.00000000E+00
  0.00000000E+00  0.00000000E+00  0.00000000E+00
  0.00000000E+00  0.00000000E+00  0.00000000E+00
  0.00000000E+00  0.00000000E+00  0.00000000E+00
  0.00000000E+00  0.00000000E+00  0.00000000E+00
  0.00000000E+00  0.00000000E+00  0.00000000E+00
  0.00000000E+00  0.00000000E+00  0.00000000E+00
  0.00000000E+00  0.00000000E+00  0.00000000E+00
  0.00000000E+00  0.00000000E+00  0.00000000E+00
  0.00000000E+00  0.00000000E+00  0.00000000E+00
  0.00000000E+00  0.00000000E+00  0.00000000E+00
  0.00000000E+00  0.00000000E+00  0.00000000E+00
  0.00000000E+00  0.00000000E+00  0.00000000E+00
  0.00000000E+00  0.00000000E+00  0.00000000E+00
  0.00000000E+00  0.00000000E+00  0.00000000E+00
  0.00000000E+00  0.00000000E+00  0.00000000E+00
  0.00000000E+00  0.00000000E+00  0.00000000E+00
  0.00000000E+00  0.00000000E+00  0.00000000E+00
  0.00000000E+00  0.00000000E+00  0.00000000E+00
  0.00000000E+00  0.00000000E+00  0.00000000E+00
  0.00000000E+00  0.00000000E+00  0.00000000E+00
  0.00000000E+00  0.00000000E+00  0.00000000E+00
  0.00000000E+00  0.00000000E+00  0.00000000E+00
  0.00000000E+00  0.00000000E+00  0.00000000E+00
  0.00000000E+00  0.00000000E+00  0.00000000E+00
  0.00000000E+00  0.00000000E+00  0.00000000E+00
  0.00000000E+00  0.00000000E+00  0.00000000E+00
  0.00000000E+00  0.00000000E+00  0.00000000E+00
  0.00000000E+00  0.00000000E+00  0.00000000E+00
  0.00000000E+00  0.00000000E+00  0.00000000E+00
  0.00000000E+00  0.00000000E+00  0.00000000E+00
  0.00000000E+00  0.00000000E+00  0.00000000E+00
  0.00000000E+00  0.00000000E+00  0.00000000E+00
  0.00000000E+00  0.00000000E+00  0.00000000E+00
  0.00000000E+00  0.00000000E+00  0.00000000E+00
