Au In Au  O  C  H                       
   1.00000000000000     
     8.8458995818999995    0.0000000000000000    0.0000000000000000
    -4.4229497909999997    7.6607737573000003    0.0000000000000000
     0.0000000000000000    0.0000000000000000   22.2227001189999989
   Au   In   Au   O    C    H 
    17     1    18     1     1     4
Selective dynamics
Direct
  0.0000000000000000  0.0000000000000000  0.0000000000000000   F   F   F
  0.0114587961678370  0.0234127093137416  0.3294919100835406   T   T   T
  0.2249528512319140  0.1166721134767279  0.2167631249565721   T   T   T
  0.1111101863827386  0.2222203727629690  0.1083401201072576   F   F   F
  0.3333295808640244  0.0000000000000000  0.0000000000000000   F   F   F
  0.3452586683576733  0.0237647634858479  0.3295132712166888   T   T   T
  0.5584510812976201  0.1163377276972562  0.2172550554447671   T   T   T
  0.4444397672467701  0.2222203727629690  0.1083401201072576   F   F   F
  0.6666704664008094  0.0000000000000000  0.0000000000000000   F   F   F
  0.6785280897149047  0.0236851404107510  0.3289426024227536   T   T   T
  0.8911934483823457  0.1163856742043982  0.2172409052800576   T   T   T
  0.7777806527835551  0.2222203727629690  0.1083401201072576   F   F   F
  0.0000005364069366  0.3333305591444571  0.0000000000000000   F   F   F
  0.0092887226380817  0.3511162199508777  0.3302367381888179   T   T   T
  0.2280403549413801  0.4480741510760314  0.2218664709191916   T   T   T
  0.1111095919175682  0.5555600693656331  0.1083401201072576   F   F   F
  0.3333300700061272  0.3333305591444571  0.0000000000000000   F   F   F
  0.3271877190175280  0.3217328795298583  0.3547895370568366   T   T   T
  0.5532817371458242  0.4479690707490412  0.2219071568024269   T   T   T
  0.4444403032488680  0.5555600693656331  0.1083401201072576   F   F   F
  0.6666698250756369  0.3333305591444571  0.0000000000000000   F   F   F
  0.6750285593292953  0.3509866779291282  0.3302952438607262   T   T   T
  0.8908871475994967  0.4485281788234891  0.2178247145472130   T   T   T
  0.7777800583183776  0.5555600693656331  0.1083401201072576   F   F   F
  0.9999998946769253  0.6666702557471211  0.0000000000000000   F   F   F
  0.0080037461497247  0.6827973611731760  0.3289568725925621   T   T   T
  0.2260931702637879  0.7816513491726603  0.2182937542810937   T   T   T
  0.1111100810596639  0.8888906285100902  0.1083401201072576   F   F   F
  0.3333306060082251  0.6666702557471211  0.0000000000000000   F   F   F
  0.3306719937275160  0.7003457630297588  0.3309957886771339   T   T   T
  0.5574087047100803  0.7813924378723712  0.2206109372425617   T   T   T
  0.4444407923909637  0.8888906285100902  0.1083401201072576   F   F   F
  0.6666703610777347  0.6666702557471211  0.0000000000000000   F   F   F
  0.7026161167644758  0.6999402180624752  0.3310574002928812   T   T   T
  0.8888059056678779  0.7815840718674388  0.2183061968651636   T   T   T
  0.7777805474604733  0.8888906285100902  0.1083401201072576   F   F   F
  0.4602130993389479  0.5874809469438029  0.3895834370979546   T   T   T
  0.3360676141280360  0.3385446433607121  0.4708940745417113   T   T   T
  0.2653887205578104  0.1971257290160541  0.4637940972145965   T   T   T
  0.4560367921418642  0.3733812289088735  0.4954781796395604   T   T   T
  0.2510602610076061  0.3733448621785538  0.4955386167756755   T   T   T
  0.4144251980159336  0.4955449717314622  0.4306800748235458   T   T   T
 
  0.00000000E+00  0.00000000E+00  0.00000000E+00
  0.00000000E+00  0.00000000E+00  0.00000000E+00
  0.00000000E+00  0.00000000E+00  0.00000000E+00
  0.00000000E+00  0.00000000E+00  0.00000000E+00
  0.00000000E+00  0.00000000E+00  0.00000000E+00
  0.00000000E+00  0.00000000E+00  0.00000000E+00
  0.00000000E+00  0.00000000E+00  0.00000000E+00
  0.00000000E+00  0.00000000E+00  0.00000000E+00
  0.00000000E+00  0.00000000E+00  0.00000000E+00
  0.00000000E+00  0.00000000E+00  0.00000000E+00
  0.00000000E+00  0.00000000E+00  0.00000000E+00
  0.00000000E+00  0.00000000E+00  0.00000000E+00
  0.00000000E+00  0.00000000E+00  0.00000000E+00
  0.00000000E+00  0.00000000E+00  0.00000000E+00
  0.00000000E+00  0.00000000E+00  0.00000000E+00
  0.00000000E+00  0.00000000E+00  0.00000000E+00
  0.00000000E+00  0.00000000E+00  0.00000000E+00
  0.00000000E+00  0.00000000E+00  0.00000000E+00
  0.00000000E+00  0.00000000E+00  0.00000000E+00
  0.00000000E+00  0.00000000E+00  0.00000000E+00
  0.00000000E+00  0.00000000E+00  0.00000000E+00
  0.00000000E+00  0.00000000E+00  0.00000000E+00
  0.00000000E+00  0.00000000E+00  0.00000000E+00
  0.00000000E+00  0.00000000E+00  0.00000000E+00
  0.00000000E+00  0.00000000E+00  0.00000000E+00
  0.00000000E+00  0.00000000E+00  0.00000000E+00
  0.00000000E+00  0.00000000E+00  0.00000000E+00
  0.00000000E+00  0.00000000E+00  0.00000000E+00
  0.00000000E+00  0.00000000E+00  0.00000000E+00
  0.00000000E+00  0.00000000E+00  0.00000000E+00
  0.00000000E+00  0.00000000E+00  0.00000000E+00
  0.00000000E+00  0.00000000E+00  0.00000000E+00
  0.00000000E+00  0.00000000E+00  0.00000000E+00
  0.00000000E+00  0.00000000E+00  0.00000000E+00
  0.00000000E+00  0.00000000E+00  0.00000000E+00
  0.00000000E+00  0.00000000E+00  0.00000000E+00
  0.00000000E+00  0.00000000E+00  0.00000000E+00
  0.00000000E+00  0.00000000E+00  0.00000000E+00
  0.00000000E+00  0.00000000E+00  0.00000000E+00
  0.00000000E+00  0.00000000E+00  0.00000000E+00
  0.00000000E+00  0.00000000E+00  0.00000000E+00
  0.00000000E+00  0.00000000E+00  0.00000000E+00
