Au In Au O                              
   1.00000000000000     
     8.8458995818999995    0.0000000000000000    0.0000000000000000
    -4.4229497909999997    7.6607737573000003    0.0000000000000000
     0.0000000000000000    0.0000000000000000   22.2227001189999989
   Au   In   Au   O 
    17     1    18     1
Selective dynamics
Direct
     0.0000000000000000    0.0000000000000000    0.0000000000000000   F   F   F
     0.9992050075598515    0.9998348699150512    0.3238854276135119   T   T   T
     0.2228442318056646    0.1123929825498486    0.2153877655841433   T   T   T
     0.1111100036335770    0.2222200072646459    0.1083399993748557   F   F   F
     0.3333300181287697    0.0000000000000000    0.0000000000000000   F   F   F
     0.3352495990280993    0.0030190308197009    0.3234274535505934   T   T   T
     0.5554951858263276    0.1111844778642804    0.2151696182650039   T   T   T
     0.4444399948572268    0.2222200072646459    0.1083399993748557   F   F   F
     0.6666700087876549    0.0000000000000000    0.0000000000000000   F   F   F
     0.6663143237149193    0.0003505400592551    0.3234088762718432   T   T   T
     0.8920645081885638    0.1168738446123836    0.2160368364093980   T   T   T
     0.7777800124212320    0.2222200072646459    0.1083399993748557   F   F   F
     0.9999999925351943    0.3333300031953925    0.0000000000000000   F   F   F
     0.9878083900969969    0.3105728609893780    0.3308562190747311   T   T   T
     0.2230168364045186    0.4436503232397384    0.2195460955242445   T   T   T
     0.1111100262929554    0.5555600161073073    0.1083399993748557   F   F   F
     0.3333300106639641    0.3333300031953925    0.0000000000000000   F   F   F
     0.3357210794488750    0.3309452940693127    0.3353926798332953   T   T   T
     0.5542592537408255    0.4438101911235756    0.2153843964128976   T   T   T
     0.4444400175166052    0.5555600161073073    0.1083399993748557   F   F   F
     0.6666700147754128    0.3333300031953925    0.0000000000000000   F   F   F
     0.6636556465961165    0.3314151287382402    0.3234235925427137   T   T   T
     0.8910992262820240    0.4453061329299468    0.2181830101046632   T   T   T
     0.7777800080624431    0.5555600161073073    0.1083399993748557   F   F   F
     0.0000000093958050    0.6666700275717332    0.0000000000000000   F   F   F
     0.9888330623471075    0.6778273387404263    0.3298002147999731   T   T   T
     0.2213650263369522    0.7755710652474113    0.2181826051646246   T   T   T
     0.1111100207962252    0.8888900503700583    0.1083399993748557   F   F   F
     0.3333300276376221    0.6666700275717332    0.0000000000000000   F   F   F
     0.3560957328101269    0.6788714946982447    0.3308527088290629   T   T   T
     0.5497977877020290    0.7746086677911016    0.2160374072470850   T   T   T
     0.4444400120198750    0.8888900503700583    0.1083399993748557   F   F   F
     0.6666700181834599    0.6666700275717332    0.0000000000000000   F   F   F
     0.6668335116689348    0.6674580248588778    0.3238836080680838   T   T   T
     0.8911517458607808    0.7755117643127037    0.2162604096161179   T   T   T
     0.7777800026787602    0.8888900503700583    0.1083399993748557   F   F   F
     0.1104819568314296    0.5561928292915700    0.3788911493990592   T   T   T
 
  0.00000000E+00  0.00000000E+00  0.00000000E+00
  0.00000000E+00  0.00000000E+00  0.00000000E+00
  0.00000000E+00  0.00000000E+00  0.00000000E+00
  0.00000000E+00  0.00000000E+00  0.00000000E+00
  0.00000000E+00  0.00000000E+00  0.00000000E+00
  0.00000000E+00  0.00000000E+00  0.00000000E+00
  0.00000000E+00  0.00000000E+00  0.00000000E+00
  0.00000000E+00  0.00000000E+00  0.00000000E+00
  0.00000000E+00  0.00000000E+00  0.00000000E+00
  0.00000000E+00  0.00000000E+00  0.00000000E+00
  0.00000000E+00  0.00000000E+00  0.00000000E+00
  0.00000000E+00  0.00000000E+00  0.00000000E+00
  0.00000000E+00  0.00000000E+00  0.00000000E+00
  0.00000000E+00  0.00000000E+00  0.00000000E+00
  0.00000000E+00  0.00000000E+00  0.00000000E+00
  0.00000000E+00  0.00000000E+00  0.00000000E+00
  0.00000000E+00  0.00000000E+00  0.00000000E+00
  0.00000000E+00  0.00000000E+00  0.00000000E+00
  0.00000000E+00  0.00000000E+00  0.00000000E+00
  0.00000000E+00  0.00000000E+00  0.00000000E+00
  0.00000000E+00  0.00000000E+00  0.00000000E+00
  0.00000000E+00  0.00000000E+00  0.00000000E+00
  0.00000000E+00  0.00000000E+00  0.00000000E+00
  0.00000000E+00  0.00000000E+00  0.00000000E+00
  0.00000000E+00  0.00000000E+00  0.00000000E+00
  0.00000000E+00  0.00000000E+00  0.00000000E+00
  0.00000000E+00  0.00000000E+00  0.00000000E+00
  0.00000000E+00  0.00000000E+00  0.00000000E+00
  0.00000000E+00  0.00000000E+00  0.00000000E+00
  0.00000000E+00  0.00000000E+00  0.00000000E+00
  0.00000000E+00  0.00000000E+00  0.00000000E+00
  0.00000000E+00  0.00000000E+00  0.00000000E+00
  0.00000000E+00  0.00000000E+00  0.00000000E+00
  0.00000000E+00  0.00000000E+00  0.00000000E+00
  0.00000000E+00  0.00000000E+00  0.00000000E+00
  0.00000000E+00  0.00000000E+00  0.00000000E+00
  0.00000000E+00  0.00000000E+00  0.00000000E+00
