Au Y  Au O                              
   1.00000000000000     
     8.8458995818999995    0.0000000000000000    0.0000000000000000
    -4.4229497909999997    7.6607737573000003    0.0000000000000000
     0.0000000000000000    0.0000000000000000   22.2227001189999989
   Au   Y    Au   O 
    17     1    18     1
Selective dynamics
Direct
  0.0000000000000000  0.0000000000000000  0.0000000000000000   F   F   F
 -0.0061485237452688 -0.0004462780912436  0.3236649031658787   T   T   T
  0.2202215200388983  0.1196741191436205  0.2177806340581581   T   T   T
  0.1111100036335770  0.2222200072646459  0.1083399993748557   F   F   F
  0.3333300181287697  0.0000000000000000  0.0000000000000000   F   F   F
  0.3282076465878212  0.0068524893637313  0.3243988264527167   T   T   T
  0.5514373667875702  0.1152272860335172  0.2148913834904835   T   T   T
  0.4444399948572268  0.2222200072646459  0.1083399993748557   F   F   F
  0.6666700087876549  0.0000000000000000  0.0000000000000000   F   F   F
  0.6611332395672614  0.0055300434978399  0.3239240763049864   T   T   T
  0.8870202718848929  0.1168765860666322  0.2163474371540385   T   T   T
  0.7777800124212320  0.2222200072646459  0.1083399993748557   F   F   F
  0.9999999925351943  0.3333300031953925  0.0000000000000000   F   F   F
 -0.0252970800149674  0.3261751901879872  0.3281678240874712   T   T   T
  0.2200047238097236  0.4466382514359219  0.2209046906217296   T   T   T
  0.1111100262929554  0.5555600161073073  0.1083399993748557   F   F   F
  0.3333300106639641  0.3333300031953925  0.0000000000000000   F   F   F
  0.3244723362302133  0.3421527932424317  0.3477638373571426   T   T   T
  0.5469715041801944  0.4464341707000646  0.2177754935788583   T   T   T
  0.4444400175166052  0.5555600161073073  0.1083399993748557   F   F   F
  0.6666700147754128  0.3333300031953925  0.0000000000000000   F   F   F
  0.6597876708638489  0.3384221246493776  0.3243897315220306   T   T   T
  0.8876300699295874  0.4473523851135133  0.2159048067837112   T   T   T
  0.7777800080624431  0.5555600161073073  0.1083399993748557   F   F   F
  0.0000000093958050  0.6666700275717332  0.0000000000000000   F   F   F
 -0.0058026859638450  0.6724650712824810  0.3224145912677669   T   T   T
  0.2193208462780217  0.7790300603345978  0.2159065854716877   T   T   T
  0.1111100207962252  0.8888900503700583  0.1083399993748557   F   F   F
  0.3333300276376221  0.6666700275717332  0.0000000000000000   F   F   F
  0.3404737168244616  0.6919361099615166  0.3281715158988990   T   T   T
  0.5497752468641106  0.7796159990584096  0.2163532867161725   T   T   T
  0.4444400120198750  0.8888900503700583  0.1083399993748557   F   F   F
  0.6666700181834599  0.6666700275717332  0.0000000000000000   F   F   F
  0.6670725833672326  0.6727708149788898  0.3236686276896074   T   T   T
  0.8859413708247110  0.7807222515929633  0.2133777471154314   T   T   T
  0.7777800026787602  0.8888900503700583  0.1083399993748557   F   F   F
  0.2090906628804634  0.4575260381067195  0.3916163215361950   T   T   T
 
  0.00000000E+00  0.00000000E+00  0.00000000E+00
  0.00000000E+00  0.00000000E+00  0.00000000E+00
  0.00000000E+00  0.00000000E+00  0.00000000E+00
  0.00000000E+00  0.00000000E+00  0.00000000E+00
  0.00000000E+00  0.00000000E+00  0.00000000E+00
  0.00000000E+00  0.00000000E+00  0.00000000E+00
  0.00000000E+00  0.00000000E+00  0.00000000E+00
  0.00000000E+00  0.00000000E+00  0.00000000E+00
  0.00000000E+00  0.00000000E+00  0.00000000E+00
  0.00000000E+00  0.00000000E+00  0.00000000E+00
  0.00000000E+00  0.00000000E+00  0.00000000E+00
  0.00000000E+00  0.00000000E+00  0.00000000E+00
  0.00000000E+00  0.00000000E+00  0.00000000E+00
  0.00000000E+00  0.00000000E+00  0.00000000E+00
  0.00000000E+00  0.00000000E+00  0.00000000E+00
  0.00000000E+00  0.00000000E+00  0.00000000E+00
  0.00000000E+00  0.00000000E+00  0.00000000E+00
  0.00000000E+00  0.00000000E+00  0.00000000E+00
  0.00000000E+00  0.00000000E+00  0.00000000E+00
  0.00000000E+00  0.00000000E+00  0.00000000E+00
  0.00000000E+00  0.00000000E+00  0.00000000E+00
  0.00000000E+00  0.00000000E+00  0.00000000E+00
  0.00000000E+00  0.00000000E+00  0.00000000E+00
  0.00000000E+00  0.00000000E+00  0.00000000E+00
  0.00000000E+00  0.00000000E+00  0.00000000E+00
  0.00000000E+00  0.00000000E+00  0.00000000E+00
  0.00000000E+00  0.00000000E+00  0.00000000E+00
  0.00000000E+00  0.00000000E+00  0.00000000E+00
  0.00000000E+00  0.00000000E+00  0.00000000E+00
  0.00000000E+00  0.00000000E+00  0.00000000E+00
  0.00000000E+00  0.00000000E+00  0.00000000E+00
  0.00000000E+00  0.00000000E+00  0.00000000E+00
  0.00000000E+00  0.00000000E+00  0.00000000E+00
  0.00000000E+00  0.00000000E+00  0.00000000E+00
  0.00000000E+00  0.00000000E+00  0.00000000E+00
  0.00000000E+00  0.00000000E+00  0.00000000E+00
  0.00000000E+00  0.00000000E+00  0.00000000E+00
