Cu Zr Cu O  C  H                        
   1.00000000000000     
     6.3046998978000000    0.0000000000000000    0.0000000000000000
     0.0000000000000000    7.7216000556999997    0.0000000000000000
     0.0000000000000000    0.0000000000000000   25.4022006988999998
   Cu   Zr   Cu   O    C    H 
    19     1    25     1     1     4
Selective dynamics
Direct
     0.0000000000000000    0.0000000000000000    0.0000000000000000   F   F   F
     0.3333299999999966    0.0000000000000000    0.1169999999999973   F   F   F
     0.6700969241290686    0.9997190913487227    0.2345563291270505   T   T   T
     0.9993461824883717    0.0012213978562329    0.3557334942593168   T   T   T
     0.6526766376954609    0.9871564178770688    0.4064446665729533   T   T   T
     0.6666700000000034    0.0000000000000000    0.0585000000000022   F   F   F
     0.0021607434498565    0.9990961843942494    0.1759317244643372   T   T   T
     0.3361386008018133    0.9996815224420839    0.2945593171726538   T   T   T
     0.3333299999999966    0.1666700000000034    0.0292499999999976   F   F   F
     0.6666700000000034    0.1666700000000034    0.1462500000000020   F   F   F
     0.0061580950492964    0.1643531802139221    0.2633440033277867   T   T   T
     0.3388763214433224    0.1673337731580126    0.3835015329793349   T   T   T
     0.0000000000000000    0.1666700000000034    0.0877499999999998   F   F   F
     0.3370891825427597    0.1651686062577771    0.2055512650777508   T   T   T
     0.6775003554090322    0.1663784928399884    0.3238198126579618   T   T   T
     0.0000000000000000    0.3333299999999966    0.0000000000000000   F   F   F
     0.3333299999999966    0.3333299999999966    0.1169999999999973   F   F   F
     0.6737712441134527    0.3321073306220178    0.2345201983635553   T   T   T
     0.0214176380220817    0.3315257699140681    0.3489698205172141   T   T   T
     0.7407285229953368    0.3259632129413532    0.4301677253538849   T   T   T
     0.6666700000000034    0.3333299999999966    0.0585000000000022   F   F   F
     0.0029351587868562    0.3331550392154624    0.1755224963652009   T   T   T
     0.3466196878057350    0.3320017538412002    0.2928768357601382   T   T   T
     0.3333299999999966    0.5000000000000000    0.0292499999999976   F   F   F
     0.6666700000000034    0.5000000000000000    0.1462500000000020   F   F   F
     0.0061545330995408    0.5001671340240852    0.2630719267500944   T   T   T
     0.3401981359174425    0.4945284055798341    0.3833954864646054   T   T   T
     0.0000000000000000    0.5000000000000000    0.0877499999999998   F   F   F
     0.3373550898405869    0.4998719917509399    0.2054267314568174   T   T   T
     0.6781610368321679    0.4963547631447840    0.3235544188729109   T   T   T
     0.0000000000000000    0.6666700000000034    0.0000000000000000   F   F   F
     0.3333299999999966    0.6666700000000034    0.1169999999999973   F   F   F
     0.6704804213481991    0.6650727271267568    0.2344425873905591   T   T   T
     0.0009998502791968    0.6607665587321778    0.3555569739910864   T   T   T
     0.6567169901518733    0.6718626053105108    0.4065169225825516   T   T   T
     0.6666700000000034    0.6666700000000034    0.0585000000000022   F   F   F
     0.0025117534857114    0.6672327129512426    0.1757414959851165   T   T   T
     0.3364004239266123    0.6639942546106922    0.2942854391752620   T   T   T
     0.3333299999999966    0.8333299999999966    0.0292499999999976   F   F   F
     0.6666700000000034    0.8333299999999966    0.1462500000000020   F   F   F
     0.0056353643149348    0.8321441496046269    0.2647546171619856   T   T   T
     0.3230334492052254    0.8302178704033371    0.3816285869013536   T   T   T
     0.0000000000000000    0.8333299999999966    0.0877499999999998   F   F   F
     0.3363513737974551    0.8328687094446472    0.2056189308587558   T   T   T
     0.6735615790614079    0.8307605861449296    0.3208113866568986   T   T   T
     0.8570589500208405    0.2985471977304340    0.4936115172153236   T   T   T
     0.6527777070740952    0.7020802929831877    0.5508164434141868   T   T   T
     0.5561391616312724    0.7764090853888130    0.5231701945803615   T   T   T
     0.5566231522100402    0.5990920274870254    0.5680753392107671   T   T   T
     0.7100807739032380    0.7886196583800560    0.5816669340957300   T   T   T
     0.7879496486520499    0.6442055906295141    0.5305643106825572   T   T   T
 
  0.00000000E+00  0.00000000E+00  0.00000000E+00
  0.00000000E+00  0.00000000E+00  0.00000000E+00
  0.00000000E+00  0.00000000E+00  0.00000000E+00
  0.00000000E+00  0.00000000E+00  0.00000000E+00
  0.00000000E+00  0.00000000E+00  0.00000000E+00
  0.00000000E+00  0.00000000E+00  0.00000000E+00
  0.00000000E+00  0.00000000E+00  0.00000000E+00
  0.00000000E+00  0.00000000E+00  0.00000000E+00
  0.00000000E+00  0.00000000E+00  0.00000000E+00
  0.00000000E+00  0.00000000E+00  0.00000000E+00
  0.00000000E+00  0.00000000E+00  0.00000000E+00
  0.00000000E+00  0.00000000E+00  0.00000000E+00
  0.00000000E+00  0.00000000E+00  0.00000000E+00
  0.00000000E+00  0.00000000E+00  0.00000000E+00
  0.00000000E+00  0.00000000E+00  0.00000000E+00
  0.00000000E+00  0.00000000E+00  0.00000000E+00
  0.00000000E+00  0.00000000E+00  0.00000000E+00
  0.00000000E+00  0.00000000E+00  0.00000000E+00
  0.00000000E+00  0.00000000E+00  0.00000000E+00
  0.00000000E+00  0.00000000E+00  0.00000000E+00
  0.00000000E+00  0.00000000E+00  0.00000000E+00
  0.00000000E+00  0.00000000E+00  0.00000000E+00
  0.00000000E+00  0.00000000E+00  0.00000000E+00
  0.00000000E+00  0.00000000E+00  0.00000000E+00
  0.00000000E+00  0.00000000E+00  0.00000000E+00
  0.00000000E+00  0.00000000E+00  0.00000000E+00
  0.00000000E+00  0.00000000E+00  0.00000000E+00
  0.00000000E+00  0.00000000E+00  0.00000000E+00
  0.00000000E+00  0.00000000E+00  0.00000000E+00
  0.00000000E+00  0.00000000E+00  0.00000000E+00
  0.00000000E+00  0.00000000E+00  0.00000000E+00
  0.00000000E+00  0.00000000E+00  0.00000000E+00
  0.00000000E+00  0.00000000E+00  0.00000000E+00
  0.00000000E+00  0.00000000E+00  0.00000000E+00
  0.00000000E+00  0.00000000E+00  0.00000000E+00
  0.00000000E+00  0.00000000E+00  0.00000000E+00
  0.00000000E+00  0.00000000E+00  0.00000000E+00
  0.00000000E+00  0.00000000E+00  0.00000000E+00
  0.00000000E+00  0.00000000E+00  0.00000000E+00
  0.00000000E+00  0.00000000E+00  0.00000000E+00
  0.00000000E+00  0.00000000E+00  0.00000000E+00
  0.00000000E+00  0.00000000E+00  0.00000000E+00
  0.00000000E+00  0.00000000E+00  0.00000000E+00
  0.00000000E+00  0.00000000E+00  0.00000000E+00
  0.00000000E+00  0.00000000E+00  0.00000000E+00
  0.00000000E+00  0.00000000E+00  0.00000000E+00
  0.00000000E+00  0.00000000E+00  0.00000000E+00
  0.00000000E+00  0.00000000E+00  0.00000000E+00
  0.00000000E+00  0.00000000E+00  0.00000000E+00
  0.00000000E+00  0.00000000E+00  0.00000000E+00
  0.00000000E+00  0.00000000E+00  0.00000000E+00
