Cu In Cu O                              
   1.00000000000000     
     7.7216000556999997    0.0000000000000000    0.0000000000000000
     0.0000000000000000    7.7216000556999997    0.0000000000000000
     0.0000000000000000    0.0000000000000000   20.4599990845000015
   Cu   In   Cu   O 
    17     1    18     1
Selective dynamics
Direct
     0.0000000000000000    0.0000000000000000    0.0889500007054593   F   F   F
     0.9902338726673267    0.9902614385755950    0.2686569233083189   T   T   T
     0.1666699946535033    0.1666699946535033    0.0000000000000000   F   F   F
     0.1666943351686299    0.1666903093583583    0.1754609477409902   T   T   T
     0.3333300053659229    0.0000000000000000    0.0889500007054593   F   F   F
     0.3284475636689825    0.9989664753070058    0.2673345888315732   T   T   T
     0.5000000000194262    0.1666699946535033    0.0000000000000000   F   F   F
     0.4961141965823294    0.1705949080964866    0.1789417590866512   T   T   T
     0.6666700243299957    0.0000000000000000    0.0889500007054593   F   F   F
     0.6602955149385016    0.0006716059178349    0.2640618821717260   T   T   T
     0.8333299755987795    0.1666699946535033    0.0000000000000000   F   F   F
     0.8330970304021934    0.1641996729546731    0.1780791492365502   T   T   T
     0.0000000000000000    0.3333300053659229    0.0889500007054593   F   F   F
     0.9989717154042539    0.3284549249539954    0.2673262180816011   T   T   T
     0.1666699946535033    0.5000000000194262    0.0000000000000000   F   F   F
     0.1706021535390083    0.4961118765875214    0.1789378188616868   T   T   T
     0.3333300053659229    0.3333300053659229    0.0889500007054593   F   F   F
     0.3531678822138274    0.3531628465809185    0.3023180853422412   T   T   T
     0.5000000000194262    0.5000000000194262    0.0000000000000000   F   F   F
     0.5018859365875670    0.5018841303217942    0.1774927683251743   T   T   T
     0.6666700243299957    0.3333300053659229    0.0889500007054593   F   F   F
     0.6768825403807717    0.3332541942412572    0.2645475387536816   T   T   T
     0.8333299755987795    0.5000000000194262    0.0000000000000000   F   F   F
     0.8369207157476223    0.4962189276869196    0.1787446424327406   T   T   T
     0.0000000000000000    0.6666700243299957    0.0889500007054593   F   F   F
     0.0006788611526078    0.6603175620316682    0.2640569499505386   T   T   T
     0.1666699946535033    0.8333299755987795    0.0000000000000000   F   F   F
     0.1642012187263253    0.8331075839296858    0.1780732033284070   T   T   T
     0.3333300053659229    0.6666700243299957    0.0889500007054593   F   F   F
     0.3332586708422734    0.6768646557216841    0.2645455703636257   T   T   T
     0.5000000000194262    0.8333299755987795    0.0000000000000000   F   F   F
     0.4962074753936376    0.8369146570328095    0.1787469524022867   T   T   T
     0.6666700243299957    0.6666700243299957    0.0889500007054593   F   F   F
     0.6685927605849865    0.6685878077433194    0.2646457682828123   T   T   T
     0.8333299755987795    0.8333299755987795    0.0000000000000000   F   F   F
     0.8336340391545206    0.8336439255132146    0.1789018426771120   T   T   T
     0.1521496500343701    0.1521505793724905    0.3137452722203509   T   T   T
 
  0.00000000E+00  0.00000000E+00  0.00000000E+00
  0.00000000E+00  0.00000000E+00  0.00000000E+00
  0.00000000E+00  0.00000000E+00  0.00000000E+00
  0.00000000E+00  0.00000000E+00  0.00000000E+00
  0.00000000E+00  0.00000000E+00  0.00000000E+00
  0.00000000E+00  0.00000000E+00  0.00000000E+00
  0.00000000E+00  0.00000000E+00  0.00000000E+00
  0.00000000E+00  0.00000000E+00  0.00000000E+00
  0.00000000E+00  0.00000000E+00  0.00000000E+00
  0.00000000E+00  0.00000000E+00  0.00000000E+00
  0.00000000E+00  0.00000000E+00  0.00000000E+00
  0.00000000E+00  0.00000000E+00  0.00000000E+00
  0.00000000E+00  0.00000000E+00  0.00000000E+00
  0.00000000E+00  0.00000000E+00  0.00000000E+00
  0.00000000E+00  0.00000000E+00  0.00000000E+00
  0.00000000E+00  0.00000000E+00  0.00000000E+00
  0.00000000E+00  0.00000000E+00  0.00000000E+00
  0.00000000E+00  0.00000000E+00  0.00000000E+00
  0.00000000E+00  0.00000000E+00  0.00000000E+00
  0.00000000E+00  0.00000000E+00  0.00000000E+00
  0.00000000E+00  0.00000000E+00  0.00000000E+00
  0.00000000E+00  0.00000000E+00  0.00000000E+00
  0.00000000E+00  0.00000000E+00  0.00000000E+00
  0.00000000E+00  0.00000000E+00  0.00000000E+00
  0.00000000E+00  0.00000000E+00  0.00000000E+00
  0.00000000E+00  0.00000000E+00  0.00000000E+00
  0.00000000E+00  0.00000000E+00  0.00000000E+00
  0.00000000E+00  0.00000000E+00  0.00000000E+00
  0.00000000E+00  0.00000000E+00  0.00000000E+00
  0.00000000E+00  0.00000000E+00  0.00000000E+00
  0.00000000E+00  0.00000000E+00  0.00000000E+00
  0.00000000E+00  0.00000000E+00  0.00000000E+00
  0.00000000E+00  0.00000000E+00  0.00000000E+00
  0.00000000E+00  0.00000000E+00  0.00000000E+00
  0.00000000E+00  0.00000000E+00  0.00000000E+00
  0.00000000E+00  0.00000000E+00  0.00000000E+00
  0.00000000E+00  0.00000000E+00  0.00000000E+00
