Au Fe Au
 1.0000000000000000
     7.2227001189999998    0.0000000000000000    0.0000000000000000
     0.0000000000000000    8.8458995818999995    0.0000000000000000
     0.0000000000000000    0.0000000000000000   26.9167995453000017
 Au  Fe  Au 
  22   1  22
Selective dynamics
Cartesian
  6.9099572038472843  0.2119477539823452  0.0000000000000000   F   F   F
  2.0947997155135818  0.2119477539823452  3.4047059744849140   F   F   F
  4.5375000891787911  0.2111955556876134  6.8819992228796165   T   T   T
  6.9306352123010386  0.2130188585738282 10.5228434131128505   T   T   T
  4.5023423461798266  0.2119477539823452  1.7024875712401311   F   F   F
  6.9285003554665625  0.2124280319791368  5.1505270144053990   T   T   T
  2.1249893771791291  0.2102551728760423  8.6677262934841615   T   T   T
  4.4242653197565946  0.2141442857706179 11.9922526844757567   T   T   T
  2.0947997155135818  1.6862053783018018  0.8511092016222972   F   F   F
  4.5023423461798266  1.6862053783018018  4.2560843441027476   F   F   F
  6.9656279500637863  1.6866515629959475  7.7661100353205974   T   T   T
  2.0311666909103003  1.6878007071431436 11.3549457086686907   T   T   T
  6.9099572038472843  1.6862053783018018  2.5535967728626168   F   F   F
  2.1246947367371587  1.6865071593813079  6.0294503427186488   T   T   T
  4.5773758205051172  1.6862759896106654  9.4671825756685735   T   T   T
  6.9099572038472843  3.1605514616170418  0.0000000000000000   F   F   F
  2.0947997155135818  3.1605514616170418  3.4047059744849140   F   F   F
  4.5374555321629870  3.1599390781198333  6.8821621753794000   T   T   T
  6.9305548587077439  3.1615306152883855 10.5225224079430522   T   T   T
  4.5023423461798266  3.1605514616170418  1.7024875712401311   F   F   F
  6.9285935097781266  3.1610178886047677  5.1505360237234452   T   T   T
  2.1250022277064717  3.1589646032402472  8.6677617183051865   T   T   T
  4.4245294182178414  3.1627399822987803 11.9922690282478275   T   T   T
  2.0947997155135818  4.6348975449323451  0.8511092016222972   F   F   F
  4.5023423461798266  4.6348975449323451  4.2560843441027476   F   F   F
  6.9655778326781075  4.6352706043118959  7.7661121748155395   T   T   T
  2.0313026584070202  4.6363699311867119 11.3548798074117219   T   T   T
  6.9099572038472843  4.6348975449323451  2.5535967728626168   F   F   F
  2.1247007287464892  4.6351300540178082  6.0294146497711285   T   T   T
  4.5775433293823582  4.6348825598270800  9.4671559204625932   T   T   T
  6.9099572038472843  6.1091551692518014  0.0000000000000000   F   F   F
  2.0947997155135818  6.1091551692518014  3.4047059744849140   F   F   F
  4.5374785673277334  6.1084096882434098  6.8820022182501548   T   T   T
  6.9307031334352933  6.1101807727701587 10.5227449609099093   T   T   T
  4.5023423461798266  6.1091551692518014  1.7024875712401311   F   F   F
  6.9285961318242064  6.1096864294829460  5.1505652007659251   T   T   T
  2.1250325208456382  6.1075178852988534  8.6677031837297012   T   T   T
  4.4245896422980122  6.1113183748392590 11.9919848526746193   T   T   T
  2.0947997155135818  7.5835012525670420  0.8511092016222972   F   F   F
  4.5023423461798266  7.5835012525670420  4.2560843441027476   F   F   F
  6.9656352667379533  7.5838745608087166  7.7660690218603259   T   T   T
  2.0311162133224792  7.5850505473601428 11.3550880414291129   T   T   T
  6.9099572038472843  7.5835012525670420  2.5535967728626168   F   F   F
  2.1247623388035022  7.5837515625473948  6.0293876499530477   T   T   T
  4.5774996209740184  7.5836410244115831  9.4670835003958285   T   T   T
