Cu Ru Cu
 1.0000000000000000
     7.7216000556999997    0.0000000000000000    0.0000000000000000
     0.0000000000000000    7.7216000556999997    0.0000000000000000
     0.0000000000000000    0.0000000000000000   20.4599990845000015
 Cu  Ru  Cu 
  17   1  18
Selective dynamics
Cartesian
  0.0000000000000000  0.0000000000000000  1.8199169329999718   F   F   F
 -0.0000024342665819 -0.0000063855510449  5.5237964830131041   T   T   T
  1.2869590400000097  1.2869590400000097  0.0000000000000000   F   F   F
  1.2827883209116326  1.2827817798620089  3.6976786563146256   T   T   T
  2.5738409879999913  0.0000000000000000  1.8199169329999718   F   F   F
  2.5873061601589993 -0.0000162838485412  5.5227547940048600   T   T   T
  3.8608000280000017  1.2869590400000097  0.0000000000000000   F   F   F
  3.8608053788008365  1.2783508173157108  3.6879573507493855   T   T   T
  5.1477592970000146  0.0000000000000000  1.8199169329999718   F   F   F
  5.1342920779916463  0.0000036521022825  5.5227770282335111   T   T   T
  6.4346407860000152  1.2869590400000097  0.0000000000000000   F   F   F
  6.4388030613182021  1.2827860535715905  3.6976722311590380   T   T   T
  0.0000000000000000  2.5738409879999913  1.8199169329999718   F   F   F
 -0.0000139825815955  2.5874226756294232  5.5232586161175243   T   T   T
  1.2869590400000097  3.8608000280000017  0.0000000000000000   F   F   F
  1.2783626268073907  3.8608043537035819  3.6879518492000529   T   T   T
  2.5738409879999913  2.5738409879999913  1.8199169329999718   F   F   F
  2.5822192251989828  2.5822181792867509  5.5103061493104724   T   T   T
  3.8608000280000017  3.8608000280000017  0.0000000000000000   F   F   F
  3.8607983523224347  3.8607959328589048  3.6818054134554985   T   T   T
  5.1477592970000146  2.5738409879999913  1.8199169329999718   F   F   F
  5.1393273503520964  2.5822796095156604  5.5103252177880684   T   T   T
  6.4346407860000152  3.8608000280000017  0.0000000000000000   F   F   F
  6.4432409704343918  3.8607964159191659  3.6879317676949146   T   T   T
  0.0000000000000000  5.1477592970000146  1.8199169329999718   F   F   F
  0.0000060731883108  5.1342901345610041  5.5227638530536884   T   T   T
  1.2869590400000097  6.4346407860000152  0.0000000000000000   F   F   F
  1.2827950749719292  6.4387973088051380  3.6976717563753292   T   T   T
  2.5738409879999913  5.1477592970000146  1.8199169329999718   F   F   F
  2.5822767894133101  5.1393299818898717  5.5103381759440540   T   T   T
  3.8608000280000017  6.4346407860000152  0.0000000000000000   F   F   F
  3.8607988042997010  6.4432408145289388  3.6879412963746265   T   T   T
  5.1477592970000146  5.1477592970000146  1.8199169329999718   F   F   F
  5.1393823493095558  5.1393806322938778  5.5103063292586194   T   T   T
  6.4346407860000152  6.4346407860000152  0.0000000000000000   F   F   F
  6.4388102506219527  6.4388072314416158  3.6976543393115970   T   T   T
