Rh Au Rh O                              
   1.00000000000000     
     8.1670999526999992    0.0000000000000000    0.0000000000000000
    -4.0835499762999996    7.0729160343000004    0.0000000000000000
     0.0000000000000000    0.0000000000000000   21.6683998108000004
   Rh   Au   Rh   O 
    17     1    18     1
Selective dynamics
Direct
  0.0000000000000000  0.0000000000000000  0.0000000000000000   F   F   F
  0.9962205631227553  0.9946886737450551  0.3063381258918738   T   T   T
  0.2232603440798823  0.1130224663642765  0.2042930868399626   T   T   T
  0.1111100018265887  0.2222200036558988  0.1025800034339497   F   F   F
  0.3333300053588815  0.0000000000000000  0.0000000000000000   F   F   F
  0.3393267110703840  0.0021979284877688  0.3061078792254598   T   T   T
  0.5554923858139246  0.1112138877227396  0.2034800664271724   T   T   T
  0.4444400071854702  0.2222200036558988  0.1025800034339497   F   F   F
  0.6666700244313759  0.0000000000000000  0.0000000000000000   F   F   F
  0.6668673383202998  0.9999739894582802  0.3060836831524792   T   T   T
  0.8897255969816628  0.1116070733630937  0.2051400790173493   T   T   T
  0.7777799963820016  0.2222200036558988  0.1025800034339497   F   F   F
  0.9999999999638760  0.3333300054131527  0.0000000000000000   F   F   F
  0.9959196438449143  0.3316118164909064  0.3104161004371143   T   T   T
  0.2229745880037979  0.4437812224960760  0.2038543033391055   T   T   T
  0.1111100017919213  0.5555599927871739  0.1025800034339497   F   F   F
  0.3333300054451982  0.3333300054131527  0.0000000000000000   F   F   F
  0.3350577638800907  0.3314406829706352  0.3228144920979705   T   T   T
  0.5538329538691281  0.4435401571997349  0.2042560652001630   T   T   T
  0.4444400071508028  0.5555599927871739  0.1025800034339497   F   F   F
  0.6666700243952519  0.3333300054131527  0.0000000000000000   F   F   F
  0.6647298849043037  0.3276343003672416  0.3060677608517497   T   T   T
  0.8899642979632398  0.4454642856356475  0.2034606670378183   T   T   T
  0.7777799963473342  0.5555599927871739  0.1025800034339497   F   F   F
  0.0000000000297220  0.6666700243765433  0.0000000000000000   F   F   F
  0.9981992038011867  0.6684180799407710  0.3097956788064612   T   T   T
  0.2212978095183496  0.7769064222286796  0.2034814074380402   T   T   T
  0.1111100018563107  0.8888900280324350  0.1025800034339497   F   F   F
  0.3333300053886035  0.6666700243765433  0.0000000000000000   F   F   F
  0.3349988906055271  0.6707627277572881  0.3103894923202490   T   T   T
  0.5551671621405174  0.7771017438846075  0.2050992085492051   T   T   T
  0.4444400072151922  0.8888900280324350  0.1025800034339497   F   F   F
  0.6666700243386572  0.6666700243765433  0.0000000000000000   F   F   F
  0.6718926175839158  0.6703704762524003  0.3063192231511516   T   T   T
  0.8897290882833533  0.7771014363792605  0.2050121295005256   T   T   T
  0.7777799964117236  0.8888900280324350  0.1025800034339497   F   F   F
  0.1085036048861827  0.5584139581089073  0.3687328558899826   T   T   T
 
  0.00000000E+00  0.00000000E+00  0.00000000E+00
  0.00000000E+00  0.00000000E+00  0.00000000E+00
  0.00000000E+00  0.00000000E+00  0.00000000E+00
  0.00000000E+00  0.00000000E+00  0.00000000E+00
  0.00000000E+00  0.00000000E+00  0.00000000E+00
  0.00000000E+00  0.00000000E+00  0.00000000E+00
  0.00000000E+00  0.00000000E+00  0.00000000E+00
  0.00000000E+00  0.00000000E+00  0.00000000E+00
  0.00000000E+00  0.00000000E+00  0.00000000E+00
  0.00000000E+00  0.00000000E+00  0.00000000E+00
  0.00000000E+00  0.00000000E+00  0.00000000E+00
  0.00000000E+00  0.00000000E+00  0.00000000E+00
  0.00000000E+00  0.00000000E+00  0.00000000E+00
  0.00000000E+00  0.00000000E+00  0.00000000E+00
  0.00000000E+00  0.00000000E+00  0.00000000E+00
  0.00000000E+00  0.00000000E+00  0.00000000E+00
  0.00000000E+00  0.00000000E+00  0.00000000E+00
  0.00000000E+00  0.00000000E+00  0.00000000E+00
  0.00000000E+00  0.00000000E+00  0.00000000E+00
  0.00000000E+00  0.00000000E+00  0.00000000E+00
  0.00000000E+00  0.00000000E+00  0.00000000E+00
  0.00000000E+00  0.00000000E+00  0.00000000E+00
  0.00000000E+00  0.00000000E+00  0.00000000E+00
  0.00000000E+00  0.00000000E+00  0.00000000E+00
  0.00000000E+00  0.00000000E+00  0.00000000E+00
  0.00000000E+00  0.00000000E+00  0.00000000E+00
  0.00000000E+00  0.00000000E+00  0.00000000E+00
  0.00000000E+00  0.00000000E+00  0.00000000E+00
  0.00000000E+00  0.00000000E+00  0.00000000E+00
  0.00000000E+00  0.00000000E+00  0.00000000E+00
  0.00000000E+00  0.00000000E+00  0.00000000E+00
  0.00000000E+00  0.00000000E+00  0.00000000E+00
  0.00000000E+00  0.00000000E+00  0.00000000E+00
  0.00000000E+00  0.00000000E+00  0.00000000E+00
  0.00000000E+00  0.00000000E+00  0.00000000E+00
  0.00000000E+00  0.00000000E+00  0.00000000E+00
  0.00000000E+00  0.00000000E+00  0.00000000E+00
