Au Re Au O  C  H                        
   1.00000000000000     
     8.8458995818999995    0.0000000000000000    0.0000000000000000
     0.0000000000000000    8.8458995818999995    0.0000000000000000
     0.0000000000000000    0.0000000000000000   21.2549991608000006
   Au   Re   Au   O    C    H 
    17     1    18     1     1     4
Selective dynamics
Direct
  0.0000000000000000  0.0000000000000000  0.0980900004383471   F   F   F
  0.9675572513330841 -0.0024984616645518  0.3014935074993234   T   T   T
  0.1666699945381183  0.1666699945381183  0.0000000000000000   F   F   F
  0.1596494014688866  0.1732179480702372  0.1980596481200789   T   T   T
  0.3333300053544903  0.0000000000000000  0.0980900004383471   F   F   F
  0.2873468212323419  0.0521494200772639  0.3098574597220702   T   T   T
  0.5000000000056559  0.1666699945381183  0.0000000000000000   F   F   F
  0.4916515957591150  0.1615657942579347  0.2007767077075986   T   T   T
  0.6666700243881039  0.0000000000000000  0.0980900004383471   F   F   F
  0.6475662984723343  0.9739439849288311  0.3065104284057408   T   T   T
  0.8333299756288497  0.1666699945381183  0.0000000000000000   F   F   F
  0.8211538384675571  0.1612929291744706  0.2022647117772607   T   T   T
  0.0000000000000000  0.3333300053544903  0.0980900004383471   F   F   F
  0.0237260025080823  0.3298639550713418  0.3048906829839177   T   T   T
  0.1666699945381183  0.5000000000056559  0.0000000000000000   F   F   F
  0.1727033545768235  0.5101090348822791  0.1981175038965768   T   T   T
  0.3333300053544903  0.3333300053544903  0.0980900004383471   F   F   F
  0.3348372383097443  0.3496433053923877  0.2856015785755080   T   T   T
  0.5000000000056559  0.5000000000056559  0.0000000000000000   F   F   F
  0.5068209195143117  0.5017974821724054  0.1973398150661386   T   T   T
  0.6666700243881039  0.3333300053544903  0.0980900004383471   F   F   F
  0.6436510705681753  0.3202417735284372  0.3030577334657407   T   T   T
  0.8333299756288497  0.5000000000056559  0.0000000000000000   F   F   F
  0.8404002320656730  0.4893109198052195  0.2001407573262782   T   T   T
  0.0000000000000000  0.6666700243881039  0.0980900004383471   F   F   F
  0.0123253408444185  0.6616350759443144  0.3004123157079069   T   T   T
  0.1666699945381183  0.8333299756288497  0.0000000000000000   F   F   F
  0.1679727852930616  0.8410527609122940  0.2022092572851795   T   T   T
  0.3333300053544903  0.6666700243881039  0.0980900004383471   F   F   F
  0.3549886438656492  0.6492078671201698  0.3089713456639637   T   T   T
  0.5000000000056559  0.8333299756288497  0.0000000000000000   F   F   F
  0.4982547722840823  0.8320881082780904  0.1970821102138041   T   T   T
  0.6666700243881039  0.6666700243881039  0.0980900004383471   F   F   F
  0.6873972020186268  0.6443024172780490  0.3012735064272465   T   T   T
  0.8333299756288497  0.8333299756288497  0.0000000000000000   F   F   F
  0.8310991803186789  0.8263447477937814  0.2002227790832476   T   T   T
  0.4287868417732614  0.8776464274385981  0.3459035478465622   T   T   T
  0.3466348956548693  0.3308190282985555  0.4408084566078904   T   T   T
  0.3200961156088340  0.3778393485113851  0.3935824117880414   T   T   T
  0.2394994655570106  0.3172039434589300  0.4655898310210325   T   T   T
  0.4191696018980776  0.4126788649138990  0.4645058471391999   T   T   T
  0.4039339007425512  0.2224294908285319  0.4362498406905486   T   T   T
 
  0.00000000E+00  0.00000000E+00  0.00000000E+00
  0.00000000E+00  0.00000000E+00  0.00000000E+00
  0.00000000E+00  0.00000000E+00  0.00000000E+00
  0.00000000E+00  0.00000000E+00  0.00000000E+00
  0.00000000E+00  0.00000000E+00  0.00000000E+00
  0.00000000E+00  0.00000000E+00  0.00000000E+00
  0.00000000E+00  0.00000000E+00  0.00000000E+00
  0.00000000E+00  0.00000000E+00  0.00000000E+00
  0.00000000E+00  0.00000000E+00  0.00000000E+00
  0.00000000E+00  0.00000000E+00  0.00000000E+00
  0.00000000E+00  0.00000000E+00  0.00000000E+00
  0.00000000E+00  0.00000000E+00  0.00000000E+00
  0.00000000E+00  0.00000000E+00  0.00000000E+00
  0.00000000E+00  0.00000000E+00  0.00000000E+00
  0.00000000E+00  0.00000000E+00  0.00000000E+00
  0.00000000E+00  0.00000000E+00  0.00000000E+00
  0.00000000E+00  0.00000000E+00  0.00000000E+00
  0.00000000E+00  0.00000000E+00  0.00000000E+00
  0.00000000E+00  0.00000000E+00  0.00000000E+00
  0.00000000E+00  0.00000000E+00  0.00000000E+00
  0.00000000E+00  0.00000000E+00  0.00000000E+00
  0.00000000E+00  0.00000000E+00  0.00000000E+00
  0.00000000E+00  0.00000000E+00  0.00000000E+00
  0.00000000E+00  0.00000000E+00  0.00000000E+00
  0.00000000E+00  0.00000000E+00  0.00000000E+00
  0.00000000E+00  0.00000000E+00  0.00000000E+00
  0.00000000E+00  0.00000000E+00  0.00000000E+00
  0.00000000E+00  0.00000000E+00  0.00000000E+00
  0.00000000E+00  0.00000000E+00  0.00000000E+00
  0.00000000E+00  0.00000000E+00  0.00000000E+00
  0.00000000E+00  0.00000000E+00  0.00000000E+00
  0.00000000E+00  0.00000000E+00  0.00000000E+00
  0.00000000E+00  0.00000000E+00  0.00000000E+00
  0.00000000E+00  0.00000000E+00  0.00000000E+00
  0.00000000E+00  0.00000000E+00  0.00000000E+00
  0.00000000E+00  0.00000000E+00  0.00000000E+00
  0.00000000E+00  0.00000000E+00  0.00000000E+00
  0.00000000E+00  0.00000000E+00  0.00000000E+00
  0.00000000E+00  0.00000000E+00  0.00000000E+00
  0.00000000E+00  0.00000000E+00  0.00000000E+00
  0.00000000E+00  0.00000000E+00  0.00000000E+00
  0.00000000E+00  0.00000000E+00  0.00000000E+00
