Ag Ti Ag O  C  H 
 1.0000000000000000
     8.8247003554999992    0.0000000000000000    0.0000000000000000
    -4.4123501777999996    7.6424146886999997    0.0000000000000000
     0.0000000000000000    0.0000000000000000   22.2052993773999994
 Ag  Ti  Ag  O   C   H  
  17   1  18   1   1   4
Selective dynamics
Cartesian
  0.0000000000000000  0.0000000000000000  0.0000000000000000   F   F   F
  0.0325515618933085  0.0615304316905112  7.2207263455203901   T   T   T
  1.4597108026243875  0.8561840748347450  4.7945487291325586   T   T   T
 -0.0000000000000122  1.6982974199999803  2.4017251040000338   F   F   F
  2.9415374170000210  0.0000000000000000  0.0000000000000000   F   F   F
  2.9251437706778169  0.0144143971316147  7.1853729746136477   T   T   T
  4.4104000266198469  0.8716937852945308  4.8138188873922259   T   T   T
  2.9415374170000090  1.6982974199999803  2.4017251040000338   F   F   F
  5.8831632009999959  0.0000000000000000  0.0000000000000000   F   F   F
  5.8825878364084341 -0.0003463982595099  7.1913510321763354   T   T   T
  7.3490675414924436  0.8463163533158520  4.8068427251254660   T   T   T
  5.8831629380000328  1.6982974199999803  2.4017251040000338   F   F   F
  7.3539316464999738  2.5474461300000248  0.0000000000000000   F   F   F
 -1.4011880993988792  2.5448770375450533  7.2207127598814633   T   T   T
  0.0005768138927193  3.3835039954596744  4.7945272870243718   T   T   T
 -1.4708127609999768  4.2458198490000063  2.4017251040000338   F   F   F
  1.4707687089999872  2.5474461300000248  0.0000000000000000   F   F   F
  1.4827049702640580  2.5543570871660628  7.1131059675770576   T   T   T
  2.9371676912786744  3.3940413643424487  4.8188090917127884   T   T   T
  1.4707246569999728  4.2458198490000063  2.4017251040000338   F   F   F
  4.4123944929999626  2.5474461300000248  0.0000000000000000   F   F   F
  4.3971922894155000  2.4178315197340177  7.2701562511464584   T   T   T
  5.8817262724082413  3.3991140369895345  4.8203297735045245   T   T   T
  4.4123501779999978  4.2458198490000063  2.4017251040000338   F   F   F
  5.8831187544999990  5.0949687869999831  0.0000000000000000   F   F   F
 -2.8430287413128443  5.1518390935605805  7.2790043964963607   T   T   T
 -1.4921130373179388  5.9317916826614496  4.8034766300736518   T   T   T
 -2.9415816009999816  6.7932662070000180  2.4017251040000338   F   F   F
 -0.0000441829999876  5.0949687869999831  0.0000000000000000   F   F   F
  0.0043246096263883  5.0735201670353876  7.1854603268161634   T   T   T
  1.4892428347294826  5.9311670746572167  4.8137806825924461   T   T   T
 -0.0000441830000319  6.7932662070000180  2.4017251040000338   F   F   F
  2.9415816009999869  5.0949687869999831  0.0000000000000000   F   F   F
  2.8217311037139816  5.1467114119851303  7.2701186682802703   T   T   T
  4.4138132873843672  5.9415743479914651  4.8203502998185082   T   T   T
  2.9415813379999922  6.7932662070000180  2.4017251040000338   F   F   F
  4.3732013470206592  4.2231750781146449  8.4233729936497603   T   T   T
  1.4827049702640576  2.5543570871660624 10.1131059675770576   T   T   T
  0.7121946715472984  2.1095056564396399  9.4839879675771073   T   T   T
  1.9275564009905406  1.7838467884493374 10.7422239675770061   T   T   T
  1.0378535395375683  3.3248673858827882 10.7422239675770061   T   T   T
  2.2532152689808234  2.9992085178924821  9.4839879675771073   T   T   T
