Au Ge Au O  C  H                        
   1.00000000000000     
     8.8458995818999995    0.0000000000000000    0.0000000000000000
    -4.4229497909999997    7.6607737573000003    0.0000000000000000
     0.0000000000000000    0.0000000000000000   22.2227001189999989
   Au   Ge   Au   O    C    H 
    17     1    18     1     1     4
Selective dynamics
Direct
     0.0000000000000000    0.0000000000000000    0.0000000000000000   F   F   F
     0.0048430909744615    0.0056229567789937    0.3309194002389043   T   T   T
     0.2234425196869898    0.1135343398619689    0.2178853550466138   T   T   T
     0.1111100036335770    0.2222200072646459    0.1083399993748557   F   F   F
     0.3333300181287697    0.0000000000000000    0.0000000000000000   F   F   F
     0.3341706016588097    0.0056567105863341    0.3309316904683293   T   T   T
     0.5561989486089636    0.1083672623611291    0.2197293235427392   T   T   T
     0.4444399948572268    0.2222200072646459    0.1083399993748557   F   F   F
     0.6666700087876549    0.0000000000000000    0.0000000000000000   F   F   F
     0.6764237389995104    0.0195145894251493    0.3426794841924807   T   T   T
     0.8855234735438582    0.1083783275209743    0.2197297818250258   T   T   T
     0.7777800124212320    0.2222200072646459    0.1083399993748557   F   F   F
     0.9999999925351943    0.3333300031953925    0.0000000000000000   F   F   F
     0.9994643632023874    0.3338653835330751    0.3294289848704781   T   T   T
     0.2255598061122425    0.4458224598375034    0.2211608007573742   T   T   T
     0.1111100262929554    0.5555600161073073    0.1083399993748557   F   F   F
     0.3333300106639641    0.3333300031953925    0.0000000000000000   F   F   F
     0.3227270622767326    0.3121184579846384    0.3285791418485061   T   T   T
     0.5536567679201125    0.4458119914007245    0.2211575831244992   T   T   T
     0.4444400175166052    0.5555600161073073    0.1083399993748557   F   F   F
     0.6666700147754128    0.3333300031953925    0.0000000000000000   F   F   F
     0.6677716057393813    0.3338255236338154    0.3294342336698362   T   T   T
     0.8886423307719514    0.4438997837959075    0.2160946579128158   T   T   T
     0.7777800080624431    0.5555600161073073    0.1083399993748557   F   F   F
     0.0000000093958050    0.6666700275717332    0.0000000000000000   F   F   F
     0.9997947576699021    0.6662283334275405    0.3262020045082180   T   T   T
     0.2249792389084131    0.7766374486941092    0.2186201318942383   T   T   T
     0.1111100207962252    0.8888900503700583    0.1083399993748557   F   F   F
     0.3333300276376221    0.6666700275717332    0.0000000000000000   F   F   F
     0.3107242397579351    0.6634427056778985    0.3385027672155420   T   T   T
     0.5564070645857344    0.7794254786822739    0.2228298119345724   T   T   T
     0.4444400120198750    0.8888900503700583    0.1083399993748557   F   F   F
     0.6666700181834599    0.6666700275717332    0.0000000000000000   F   F   F
     0.6860549972137954    0.6634493721772612    0.3384912745054403   T   T   T
     0.8850421763495113    0.7766569548674435    0.2186097555175517   T   T   T
     0.7777800026787602    0.8888900503700583    0.1083399993748557   F   F   F
     0.5487553062705124    0.7641421342750124    0.3896890006831516   T   T   T
     0.3257910488894868    0.3182480647865689    0.4952180882437942   T   T   T
     0.2673460752045559    0.2013207450136078    0.4670531435320950   T   T   T
     0.4265254953929458    0.3178155996244862    0.5235130845259092   T   T   T
     0.2246012860203187    0.3177802037166326    0.5235098635916804   T   T   T
     0.3843956191701424    0.4354806571825864    0.4671985772185553   T   T   T
 
  0.00000000E+00  0.00000000E+00  0.00000000E+00
  0.00000000E+00  0.00000000E+00  0.00000000E+00
  0.00000000E+00  0.00000000E+00  0.00000000E+00
  0.00000000E+00  0.00000000E+00  0.00000000E+00
  0.00000000E+00  0.00000000E+00  0.00000000E+00
  0.00000000E+00  0.00000000E+00  0.00000000E+00
  0.00000000E+00  0.00000000E+00  0.00000000E+00
  0.00000000E+00  0.00000000E+00  0.00000000E+00
  0.00000000E+00  0.00000000E+00  0.00000000E+00
  0.00000000E+00  0.00000000E+00  0.00000000E+00
  0.00000000E+00  0.00000000E+00  0.00000000E+00
  0.00000000E+00  0.00000000E+00  0.00000000E+00
  0.00000000E+00  0.00000000E+00  0.00000000E+00
  0.00000000E+00  0.00000000E+00  0.00000000E+00
  0.00000000E+00  0.00000000E+00  0.00000000E+00
  0.00000000E+00  0.00000000E+00  0.00000000E+00
  0.00000000E+00  0.00000000E+00  0.00000000E+00
  0.00000000E+00  0.00000000E+00  0.00000000E+00
  0.00000000E+00  0.00000000E+00  0.00000000E+00
  0.00000000E+00  0.00000000E+00  0.00000000E+00
  0.00000000E+00  0.00000000E+00  0.00000000E+00
  0.00000000E+00  0.00000000E+00  0.00000000E+00
  0.00000000E+00  0.00000000E+00  0.00000000E+00
  0.00000000E+00  0.00000000E+00  0.00000000E+00
  0.00000000E+00  0.00000000E+00  0.00000000E+00
  0.00000000E+00  0.00000000E+00  0.00000000E+00
  0.00000000E+00  0.00000000E+00  0.00000000E+00
  0.00000000E+00  0.00000000E+00  0.00000000E+00
  0.00000000E+00  0.00000000E+00  0.00000000E+00
  0.00000000E+00  0.00000000E+00  0.00000000E+00
  0.00000000E+00  0.00000000E+00  0.00000000E+00
  0.00000000E+00  0.00000000E+00  0.00000000E+00
  0.00000000E+00  0.00000000E+00  0.00000000E+00
  0.00000000E+00  0.00000000E+00  0.00000000E+00
  0.00000000E+00  0.00000000E+00  0.00000000E+00
  0.00000000E+00  0.00000000E+00  0.00000000E+00
  0.00000000E+00  0.00000000E+00  0.00000000E+00
  0.00000000E+00  0.00000000E+00  0.00000000E+00
  0.00000000E+00  0.00000000E+00  0.00000000E+00
  0.00000000E+00  0.00000000E+00  0.00000000E+00
  0.00000000E+00  0.00000000E+00  0.00000000E+00
  0.00000000E+00  0.00000000E+00  0.00000000E+00
