Pd Ag Pd C  H  O                        
   1.00000000000000     
     8.4004001617000004    0.0000000000000000    0.0000000000000000
    -4.2002000809000002    7.2749599419999997    0.0000000000000000
     0.0000000000000000    0.0000000000000000   21.8589000702000007
   Pd   Ag   Pd   C    H    O 
    17     1    18     1     4     1
Selective dynamics
Direct
  0.0000000000000000  0.0000000000000000  0.0000000000000000   F   F   F
  0.9982366891294854 -0.0011829186206290  0.3169133963679158   T   T   T
  0.2209554064265778  0.1091332606302665  0.2106336550237827   T   T   T
  0.1111100018356126  0.2222200036685749  0.1045899987034034   F   F   F
  0.3333300053688575  0.0000000000000000  0.0000000000000000   F   F   F
  0.3324554155187555  0.9995327974681907  0.3170717056966860   T   T   T
  0.5544470252666275  0.1113300062406735  0.2108133488123860   T   T   T
  0.4444400072044701  0.2222200036685749  0.1045899987034034   F   F   F
  0.6666700244273471  0.0000000000000000  0.0000000000000000   F   F   F
  0.6679600642184510  0.0026228410423814  0.3144938782500271   T   T   T
  0.8892919918098925  0.1099862055734935  0.2089489150748643   T   T   T
  0.7777799963834298  0.2222200036685749  0.1045899987034034   F   F   F
  0.9999999999751026  0.3333300054341350  0.0000000000000000   F   F   F
  0.9978929343691547  0.3328106166111536  0.3149589547013307   T   T   T
  0.2222498857681890  0.4426830220368637  0.2107709033800554   T   T   T
  0.1111100017544544  0.5555599928003048  0.1045899987034034   F   F   F
  0.3333300054630044  0.3333300054341350  0.0000000000000000   F   F   F
  0.3299222139991384  0.3285246527852273  0.3224454265512604   T   T   T
  0.5543983484449788  0.4416704449356121  0.2122706416016136   T   T   T
  0.4444400072423562  0.5555599928003048  0.1045899987034034   F   F   F
  0.6666700244024497  0.3333300054341350  0.0000000000000000   F   F   F
  0.6680917243058215  0.3311911432824980  0.3251593183531915   T   T   T
  0.8861032733920213  0.4425686258693838  0.2110656800188488   T   T   T
  0.7777799964213159  0.5555599928003048  0.1045899987034034   F   F   F
  0.0000000000469171  0.6666700243942074  0.0000000000000000   F   F   F
 -0.0010857256837439  0.6676249997542466  0.3189783369215851   T   T   T
  0.2202442754401049  0.7730087524130974  0.2123175344195810   T   T   T
  0.1111100018825297  0.8888900280627823  0.1045899987034034   F   F   F
  0.3333300054157746  0.6666700243942074  0.0000000000000000   F   F   F
  0.3294378745284546  0.6712380025040254  0.3190115109882591   T   T   T
  0.5541892618150379  0.7755862089209162  0.2099137924978881   T   T   T
  0.4444400072513872  0.8888900280627823  0.1045899987034034   F   F   F
  0.6666700243552199  0.6666700243942074  0.0000000000000000   F   F   F
  0.6698969473518641  0.6696875870661262  0.3194607201133896   T   T   T
  0.8853362697153127  0.7738907343959157  0.2120689993518838   T   T   T
  0.7777799964303469  0.8888900280627823  0.1045899987034034   F   F   F
  0.6707248243844494  0.3199522762184557  0.4196746326712156   T   T   T
  0.7404365939526762  0.4624111878708873  0.4353582715664101   T   T   T
  0.5280295871556333  0.2448824377348966  0.4351318851796889   T   T   T
  0.7456122944709062  0.2499768689284802  0.4327570385586940   T   T   T
  0.5289044520376047  0.7464413981834608  0.4176196265325486   T   T   T
  0.4777030056944649  0.6344519133601272  0.3934454096182228   T   T   T
 
  0.00000000E+00  0.00000000E+00  0.00000000E+00
  0.00000000E+00  0.00000000E+00  0.00000000E+00
  0.00000000E+00  0.00000000E+00  0.00000000E+00
  0.00000000E+00  0.00000000E+00  0.00000000E+00
  0.00000000E+00  0.00000000E+00  0.00000000E+00
  0.00000000E+00  0.00000000E+00  0.00000000E+00
  0.00000000E+00  0.00000000E+00  0.00000000E+00
  0.00000000E+00  0.00000000E+00  0.00000000E+00
  0.00000000E+00  0.00000000E+00  0.00000000E+00
  0.00000000E+00  0.00000000E+00  0.00000000E+00
  0.00000000E+00  0.00000000E+00  0.00000000E+00
  0.00000000E+00  0.00000000E+00  0.00000000E+00
  0.00000000E+00  0.00000000E+00  0.00000000E+00
  0.00000000E+00  0.00000000E+00  0.00000000E+00
  0.00000000E+00  0.00000000E+00  0.00000000E+00
  0.00000000E+00  0.00000000E+00  0.00000000E+00
  0.00000000E+00  0.00000000E+00  0.00000000E+00
  0.00000000E+00  0.00000000E+00  0.00000000E+00
  0.00000000E+00  0.00000000E+00  0.00000000E+00
  0.00000000E+00  0.00000000E+00  0.00000000E+00
  0.00000000E+00  0.00000000E+00  0.00000000E+00
  0.00000000E+00  0.00000000E+00  0.00000000E+00
  0.00000000E+00  0.00000000E+00  0.00000000E+00
  0.00000000E+00  0.00000000E+00  0.00000000E+00
  0.00000000E+00  0.00000000E+00  0.00000000E+00
  0.00000000E+00  0.00000000E+00  0.00000000E+00
  0.00000000E+00  0.00000000E+00  0.00000000E+00
  0.00000000E+00  0.00000000E+00  0.00000000E+00
  0.00000000E+00  0.00000000E+00  0.00000000E+00
  0.00000000E+00  0.00000000E+00  0.00000000E+00
  0.00000000E+00  0.00000000E+00  0.00000000E+00
  0.00000000E+00  0.00000000E+00  0.00000000E+00
  0.00000000E+00  0.00000000E+00  0.00000000E+00
  0.00000000E+00  0.00000000E+00  0.00000000E+00
  0.00000000E+00  0.00000000E+00  0.00000000E+00
  0.00000000E+00  0.00000000E+00  0.00000000E+00
  0.00000000E+00  0.00000000E+00  0.00000000E+00
  0.00000000E+00  0.00000000E+00  0.00000000E+00
  0.00000000E+00  0.00000000E+00  0.00000000E+00
  0.00000000E+00  0.00000000E+00  0.00000000E+00
  0.00000000E+00  0.00000000E+00  0.00000000E+00
  0.00000000E+00  0.00000000E+00  0.00000000E+00
