Ag In Ag O  C  H                        
   1.00000000000000     
     8.8247003554999992    0.0000000000000000    0.0000000000000000
     0.0000000000000000    8.8247003554999992    0.0000000000000000
     0.0000000000000000    0.0000000000000000   21.2399997710999990
   Ag   In   Ag   O    C    H 
    17     1    18     1     1     4
Selective dynamics
Direct
     0.0000000000000000    0.0000000000000000    0.0979299992192182   F   F   F
     0.9990091650576953    0.9990143856091902    0.3002256362291006   T   T   T
     0.1666699946455736    0.1666699946455736    0.0000000000000000   F   F   F
     0.1665438475973886    0.1665031095138375    0.1992384474944142   T   T   T
     0.3333300053827557    0.0000000000000000    0.0979299992192182   F   F   F
     0.3326257433448510    0.0026098563738528    0.2980287007113129   T   T   T
     0.5000000000283293    0.1666699946455736    0.0000000000000000   F   F   F
     0.4972465962919213    0.1741086486318499    0.2017973758990426   T   T   T
     0.6666700243632988    0.0000000000000000    0.0979299992192182   F   F   F
     0.6666083750276776    0.0040110536197860    0.2997297544312418   T   T   T
     0.8333299756083719    0.1666699946455736    0.0000000000000000   F   F   F
     0.8334411929742268    0.1678276662903577    0.1990084694592998   T   T   T
     0.0000000000000000    0.3333300053827557    0.0979299992192182   F   F   F
     0.0026666501262630    0.3325865694343045    0.2980252182578070   T   T   T
     0.1666699946455736    0.5000000000283293    0.0000000000000000   F   F   F
     0.1740945022143020    0.4971984836547471    0.2017987134593286   T   T   T
     0.3333300053827557    0.3333300053827557    0.0979299992192182   F   F   F
     0.3370888847760680    0.3371808495734691    0.3265831441623981   T   T   T
     0.5000000000283293    0.5000000000283293    0.0000000000000000   F   F   F
     0.5016355266529332    0.5016358157320022    0.1995010561107111   T   T   T
     0.6666700243632988    0.3333300053827557    0.0979299992192182   F   F   F
     0.6781427186371983    0.3306797633758086    0.2991471885339654   T   T   T
     0.8333299756083719    0.5000000000283293    0.0000000000000000   F   F   F
     0.8360676825159656    0.5009719341754959    0.1986318285780379   T   T   T
     0.0000000000000000    0.6666700243632988    0.0979299992192182   F   F   F
     0.0040159102321364    0.6666008284985425    0.2997313925080372   T   T   T
     0.1666699946455736    0.8333299756083719    0.0000000000000000   F   F   F
     0.1678543629553108    0.8334225335428791    0.1990184046468171   T   T   T
     0.3333300053827557    0.6666700243632988    0.0979299992192182   F   F   F
     0.3306707828302130    0.6781204147131816    0.2991574219512246   T   T   T
     0.5000000000283293    0.8333299756083719    0.0000000000000000   F   F   F
     0.5009774910868764    0.8360933178968544    0.1986297645245962   T   T   T
     0.6666700243632988    0.6666700243632988    0.0979299992192182   F   F   F
     0.6774350433370039    0.6774534192808581    0.2989342313044535   T   T   T
     0.8333299756083719    0.8333299756083719    0.0000000000000000   F   F   F
     0.8340070955295712    0.8340063242041331    0.1988662411617461   T   T   T
     0.5159228113233225    0.5159316409680293    0.3622433756044949   T   T   T
     0.2893309791427729    0.2893142611811970    0.4285931306823962   T   T   T
     0.2028522714847753    0.2028443858239400    0.4355929548117178   T   T   T
     0.3964566405756375    0.2530595325298085    0.4495760543459180   T   T   T
     0.2530413456676386    0.3964660382196681    0.4495424795513349   T   T   T
     0.5235261592368282    0.5235079844171778    0.4077861642017018   T   T   T
 
  0.00000000E+00  0.00000000E+00  0.00000000E+00
  0.00000000E+00  0.00000000E+00  0.00000000E+00
  0.00000000E+00  0.00000000E+00  0.00000000E+00
  0.00000000E+00  0.00000000E+00  0.00000000E+00
  0.00000000E+00  0.00000000E+00  0.00000000E+00
  0.00000000E+00  0.00000000E+00  0.00000000E+00
  0.00000000E+00  0.00000000E+00  0.00000000E+00
  0.00000000E+00  0.00000000E+00  0.00000000E+00
  0.00000000E+00  0.00000000E+00  0.00000000E+00
  0.00000000E+00  0.00000000E+00  0.00000000E+00
  0.00000000E+00  0.00000000E+00  0.00000000E+00
  0.00000000E+00  0.00000000E+00  0.00000000E+00
  0.00000000E+00  0.00000000E+00  0.00000000E+00
  0.00000000E+00  0.00000000E+00  0.00000000E+00
  0.00000000E+00  0.00000000E+00  0.00000000E+00
  0.00000000E+00  0.00000000E+00  0.00000000E+00
  0.00000000E+00  0.00000000E+00  0.00000000E+00
  0.00000000E+00  0.00000000E+00  0.00000000E+00
  0.00000000E+00  0.00000000E+00  0.00000000E+00
  0.00000000E+00  0.00000000E+00  0.00000000E+00
  0.00000000E+00  0.00000000E+00  0.00000000E+00
  0.00000000E+00  0.00000000E+00  0.00000000E+00
  0.00000000E+00  0.00000000E+00  0.00000000E+00
  0.00000000E+00  0.00000000E+00  0.00000000E+00
  0.00000000E+00  0.00000000E+00  0.00000000E+00
  0.00000000E+00  0.00000000E+00  0.00000000E+00
  0.00000000E+00  0.00000000E+00  0.00000000E+00
  0.00000000E+00  0.00000000E+00  0.00000000E+00
  0.00000000E+00  0.00000000E+00  0.00000000E+00
  0.00000000E+00  0.00000000E+00  0.00000000E+00
  0.00000000E+00  0.00000000E+00  0.00000000E+00
  0.00000000E+00  0.00000000E+00  0.00000000E+00
  0.00000000E+00  0.00000000E+00  0.00000000E+00
  0.00000000E+00  0.00000000E+00  0.00000000E+00
  0.00000000E+00  0.00000000E+00  0.00000000E+00
  0.00000000E+00  0.00000000E+00  0.00000000E+00
  0.00000000E+00  0.00000000E+00  0.00000000E+00
  0.00000000E+00  0.00000000E+00  0.00000000E+00
  0.00000000E+00  0.00000000E+00  0.00000000E+00
  0.00000000E+00  0.00000000E+00  0.00000000E+00
  0.00000000E+00  0.00000000E+00  0.00000000E+00
  0.00000000E+00  0.00000000E+00  0.00000000E+00
