Ir Cu Ir C  H  O                        
   1.00000000000000     
     8.2306995391999997    0.0000000000000000    0.0000000000000000
    -4.1153497695999999    7.1279948919000002    0.0000000000000000
     0.0000000000000000    0.0000000000000000   21.7203998566000003
   Ir   Cu   Ir   C    H    O 
    17     1    18     1     4     1
Selective dynamics
Direct
  0.0000000000000000  0.0000000000000000  0.0000000000000000   F   F   F
  0.9951277308995503  0.9963787505327408  0.3051274487525546   T   T   T
  0.2240007736223975  0.1141716576977247  0.2054382931333182   T   T   T
  0.1111100018323512  0.2222200036647024  0.1031299978264144   F   F   F
  0.3333300054185528  0.0000000000000000  0.0000000000000000   F   F   F
  0.3346946818552918  0.9972881571212857  0.3051509922441640   T   T   T
  0.5547389440730830  0.1119086436729465  0.2043120671483425   T   T   T
  0.4444400072509040  0.2222200036647024  0.1031299978264144   F   F   F
  0.6666700244452528  0.0000000000000000  0.0000000000000000   F   F   F
  0.6646879037839596  0.0019164136647229  0.3071958428124478   T   T   T
  0.8905962904590982  0.1151669238375807  0.2059743233877915   T   T   T
  0.7777799963894978  0.2222200036647024  0.1031299978264144   F   F   F
  0.0000000000041780  0.3333300054269088  0.0000000000000000   F   F   F
  0.9942053423898165  0.3244697149819118  0.3066549886627541   T   T   T
  0.2235155058333504  0.4431342450661754  0.2052374536109215   T   T   T
  0.1111100017824072  0.5555599928249180  0.1031299978264144   F   F   F
  0.3333300054227308  0.3333300054269088  0.0000000000000000   F   F   F
  0.3371729275678410  0.3303332578999909  0.3178195727512027   T   T   T
  0.5524841029483588  0.4426781130818294  0.2054587891410030   T   T   T
  0.4444400072009600  0.5555599928249180  0.1031299978264144   F   F   F
  0.6666700244494308  0.3333300054269088  0.0000000000000000   F   F   F
  0.6697025349561401  0.3320682310851666  0.3051432052874636   T   T   T
  0.8894043138445225  0.4461292501040717  0.2035029157879480   T   T   T
  0.7777799964610566  0.5555599928249180  0.1031299978264144   F   F   F
  0.0000000000026219  0.6666700243290080  0.0000000000000000   F   F   F
 -0.0056964718134075  0.6723773272077905  0.3073757533976448   T   T   T
  0.2205640587890055  0.7773319042973021  0.2035078522919735   T   T   T
  0.1111100018349731  0.8888900279937104  0.1031299978264144   F   F   F
  0.3333300054211747  0.6666700243290080  0.0000000000000000   F   F   F
  0.3422128510964690  0.6726361401638652  0.3066577532519590   T   T   T
  0.5514586799335620  0.7760207803014697  0.2059716649416424   T   T   T
  0.4444400072535259  0.8888900279937104  0.1031299978264144   F   F   F
  0.6666700243263790  0.6666700243290080  0.0000000000000000   F   F   F
  0.6704358695787637  0.6717663839435128  0.3051390266884715   T   T   T
  0.8906673689007034  0.7759601744527470  0.2050204590005391   T   T   T
  0.7777799963921268  0.8888900279937104  0.1031299978264144   F   F   F
  0.3431715884419655  0.3232215273864251  0.4111415095389949   T   T   T
  0.4153723670773057  0.4700007774906499  0.4250298844099311   T   T   T
  0.1963611172015389  0.2487873026029539  0.4249895439904176   T   T   T
  0.4167726162940718  0.2518428754855545  0.4266737451824443   T   T   T
  0.1050455393828447  0.5622105690422071  0.4217192971268782   T   T   T
  0.1102121803328905  0.5567757641689717  0.3771862073425545   T   T   T
 
  0.00000000E+00  0.00000000E+00  0.00000000E+00
  0.00000000E+00  0.00000000E+00  0.00000000E+00
  0.00000000E+00  0.00000000E+00  0.00000000E+00
  0.00000000E+00  0.00000000E+00  0.00000000E+00
  0.00000000E+00  0.00000000E+00  0.00000000E+00
  0.00000000E+00  0.00000000E+00  0.00000000E+00
  0.00000000E+00  0.00000000E+00  0.00000000E+00
  0.00000000E+00  0.00000000E+00  0.00000000E+00
  0.00000000E+00  0.00000000E+00  0.00000000E+00
  0.00000000E+00  0.00000000E+00  0.00000000E+00
  0.00000000E+00  0.00000000E+00  0.00000000E+00
  0.00000000E+00  0.00000000E+00  0.00000000E+00
  0.00000000E+00  0.00000000E+00  0.00000000E+00
  0.00000000E+00  0.00000000E+00  0.00000000E+00
  0.00000000E+00  0.00000000E+00  0.00000000E+00
  0.00000000E+00  0.00000000E+00  0.00000000E+00
  0.00000000E+00  0.00000000E+00  0.00000000E+00
  0.00000000E+00  0.00000000E+00  0.00000000E+00
  0.00000000E+00  0.00000000E+00  0.00000000E+00
  0.00000000E+00  0.00000000E+00  0.00000000E+00
  0.00000000E+00  0.00000000E+00  0.00000000E+00
  0.00000000E+00  0.00000000E+00  0.00000000E+00
  0.00000000E+00  0.00000000E+00  0.00000000E+00
  0.00000000E+00  0.00000000E+00  0.00000000E+00
  0.00000000E+00  0.00000000E+00  0.00000000E+00
  0.00000000E+00  0.00000000E+00  0.00000000E+00
  0.00000000E+00  0.00000000E+00  0.00000000E+00
  0.00000000E+00  0.00000000E+00  0.00000000E+00
  0.00000000E+00  0.00000000E+00  0.00000000E+00
  0.00000000E+00  0.00000000E+00  0.00000000E+00
  0.00000000E+00  0.00000000E+00  0.00000000E+00
  0.00000000E+00  0.00000000E+00  0.00000000E+00
  0.00000000E+00  0.00000000E+00  0.00000000E+00
  0.00000000E+00  0.00000000E+00  0.00000000E+00
  0.00000000E+00  0.00000000E+00  0.00000000E+00
  0.00000000E+00  0.00000000E+00  0.00000000E+00
  0.00000000E+00  0.00000000E+00  0.00000000E+00
  0.00000000E+00  0.00000000E+00  0.00000000E+00
  0.00000000E+00  0.00000000E+00  0.00000000E+00
  0.00000000E+00  0.00000000E+00  0.00000000E+00
  0.00000000E+00  0.00000000E+00  0.00000000E+00
  0.00000000E+00  0.00000000E+00  0.00000000E+00
