Cu Sc Cu O  C  H                        
   1.00000000000000     
     6.3046998978000000    0.0000000000000000    0.0000000000000000
     0.0000000000000000    7.7216000556999997    0.0000000000000000
     0.0000000000000000    0.0000000000000000   25.4022006988999998
   Cu   Sc   Cu   O    C    H 
    19     1    25     1     1     4
Selective dynamics
Direct
  0.0000000000000000  0.0000000000000000  0.0000000000000000   F   F   F
  0.3333299999999966  0.0000000000000000  0.1169999999999973   F   F   F
  0.6690975834061490 -0.0009635813839676  0.2355764513590469   T   T   T
  0.0031911642774725 -0.0011634715087844  0.3552672628390000   T   T   T
  0.6585779781465072 -0.0054255765233088  0.4098355568842675   T   T   T
  0.6666700000000034  0.0000000000000000  0.0585000000000022   F   F   F
  0.0011843731475721 -0.0013674236198987  0.1760223198929201   T   T   T
  0.3356517760921657 -0.0004266153238537  0.2936354865353490   T   T   T
  0.3333299999999966  0.1666700000000034  0.0292499999999976   F   F   F
  0.6666700000000034  0.1666700000000034  0.1462500000000020   F   F   F
  0.0044524848922938  0.1645509240633997  0.2633523888807482   T   T   T
  0.3360018209606211  0.1679413189713951  0.3801064042922686   T   T   T
  0.0000000000000000  0.1666700000000034  0.0877499999999998   F   F   F
  0.3366849665090487  0.1653266038389455  0.2052137079833838   T   T   T
  0.6771350461978249  0.1693380989093305  0.3254364318044971   T   T   T
  0.0000000000000000  0.3333299999999966  0.0000000000000000   F   F   F
  0.3333299999999966  0.3333299999999966  0.1169999999999973   F   F   F
  0.6730055679371987  0.3324737663750799  0.2345238930614149   T   T   T
  0.0162851070157225  0.3315107010297934  0.3505966012743799   T   T   T
  0.7312689970506093  0.3431774562050579  0.4288845866808617   T   T   T
  0.6666700000000034  0.3333299999999966  0.0585000000000022   F   F   F
  0.0024016217842452  0.3327028788163360  0.1755572239146994   T   T   T
  0.3447792731839390  0.3319767584267169  0.2921714825330728   T   T   T
  0.3333299999999966  0.5000000000000000  0.0292499999999976   F   F   F
  0.6666700000000034  0.5000000000000000  0.1462500000000020   F   F   F
  0.0053072720743339  0.4992350946565025  0.2633135805240243   T   T   T
  0.3462694031024248  0.4942334907056279  0.3806088305026357   T   T   T
  0.0000000000000000  0.5000000000000000  0.0877499999999998   F   F   F
  0.3370242375508767  0.4997592591417209  0.2051358552077910   T   T   T
  0.6785688148744810  0.4985950932138657  0.3246255285465264   T   T   T
  0.0000000000000000  0.6666700000000034  0.0000000000000000   F   F   F
  0.3333299999999966  0.6666700000000034  0.1169999999999973   F   F   F
  0.6700947762694032  0.6666258439078481  0.2352982481204915   T   T   T
  0.0075836886062582  0.6630456446724590  0.3538417616922429   T   T   T
  0.6693253372726299  0.6734195034890534  0.4119577655939561   T   T   T
  0.6666700000000034  0.6666700000000034  0.0585000000000022   F   F   F
  0.0014897411069052  0.6667148517732918  0.1759691772267558   T   T   T
  0.3381425320516959  0.6645368356093559  0.2931844603356455   T   T   T
  0.3333299999999966  0.8333299999999966  0.0292499999999976   F   F   F
  0.6666700000000034  0.8333299999999966  0.1462500000000020   F   F   F
  0.0027410908891408  0.8321988072883232  0.2651117358262959   T   T   T
  0.3348268106456266  0.8292403497330755  0.3802868807458779   T   T   T
  0.0000000000000000  0.8333299999999966  0.0877499999999998   F   F   F
  0.3353568622316335  0.8329605879527550  0.2057619311280482   T   T   T
  0.6724964877286537  0.8322637474389413  0.3251426812638123   T   T   T
  0.6969972035938187  0.1447406590593263  0.4777978926470428   T   T   T
  0.8125656667092374  0.5810177018713197  0.4816577264180669   T   T   T
  0.8701928219176260  0.7112693264955657  0.4908623015423953   T   T   T
  0.7125510839301901  0.5402433496236891  0.5149514156842429   T   T   T
  0.9589239886593774  0.5007191252998153  0.4824839740420620   T   T   T
  0.6111550960204097  0.1076003115364322  0.5070768352107625   T   T   T
 
  0.00000000E+00  0.00000000E+00  0.00000000E+00
  0.00000000E+00  0.00000000E+00  0.00000000E+00
  0.00000000E+00  0.00000000E+00  0.00000000E+00
  0.00000000E+00  0.00000000E+00  0.00000000E+00
  0.00000000E+00  0.00000000E+00  0.00000000E+00
  0.00000000E+00  0.00000000E+00  0.00000000E+00
  0.00000000E+00  0.00000000E+00  0.00000000E+00
  0.00000000E+00  0.00000000E+00  0.00000000E+00
  0.00000000E+00  0.00000000E+00  0.00000000E+00
  0.00000000E+00  0.00000000E+00  0.00000000E+00
  0.00000000E+00  0.00000000E+00  0.00000000E+00
  0.00000000E+00  0.00000000E+00  0.00000000E+00
  0.00000000E+00  0.00000000E+00  0.00000000E+00
  0.00000000E+00  0.00000000E+00  0.00000000E+00
  0.00000000E+00  0.00000000E+00  0.00000000E+00
  0.00000000E+00  0.00000000E+00  0.00000000E+00
  0.00000000E+00  0.00000000E+00  0.00000000E+00
  0.00000000E+00  0.00000000E+00  0.00000000E+00
  0.00000000E+00  0.00000000E+00  0.00000000E+00
  0.00000000E+00  0.00000000E+00  0.00000000E+00
  0.00000000E+00  0.00000000E+00  0.00000000E+00
  0.00000000E+00  0.00000000E+00  0.00000000E+00
  0.00000000E+00  0.00000000E+00  0.00000000E+00
  0.00000000E+00  0.00000000E+00  0.00000000E+00
  0.00000000E+00  0.00000000E+00  0.00000000E+00
  0.00000000E+00  0.00000000E+00  0.00000000E+00
  0.00000000E+00  0.00000000E+00  0.00000000E+00
  0.00000000E+00  0.00000000E+00  0.00000000E+00
  0.00000000E+00  0.00000000E+00  0.00000000E+00
  0.00000000E+00  0.00000000E+00  0.00000000E+00
  0.00000000E+00  0.00000000E+00  0.00000000E+00
  0.00000000E+00  0.00000000E+00  0.00000000E+00
  0.00000000E+00  0.00000000E+00  0.00000000E+00
  0.00000000E+00  0.00000000E+00  0.00000000E+00
  0.00000000E+00  0.00000000E+00  0.00000000E+00
  0.00000000E+00  0.00000000E+00  0.00000000E+00
  0.00000000E+00  0.00000000E+00  0.00000000E+00
  0.00000000E+00  0.00000000E+00  0.00000000E+00
  0.00000000E+00  0.00000000E+00  0.00000000E+00
  0.00000000E+00  0.00000000E+00  0.00000000E+00
  0.00000000E+00  0.00000000E+00  0.00000000E+00
  0.00000000E+00  0.00000000E+00  0.00000000E+00
  0.00000000E+00  0.00000000E+00  0.00000000E+00
  0.00000000E+00  0.00000000E+00  0.00000000E+00
  0.00000000E+00  0.00000000E+00  0.00000000E+00
  0.00000000E+00  0.00000000E+00  0.00000000E+00
  0.00000000E+00  0.00000000E+00  0.00000000E+00
  0.00000000E+00  0.00000000E+00  0.00000000E+00
  0.00000000E+00  0.00000000E+00  0.00000000E+00
  0.00000000E+00  0.00000000E+00  0.00000000E+00
  0.00000000E+00  0.00000000E+00  0.00000000E+00
