Au Os Au O                              
   1.00000000000000     
     8.8458995818999995    0.0000000000000000    0.0000000000000000
     0.0000000000000000    8.8458995818999995    0.0000000000000000
     0.0000000000000000    0.0000000000000000   21.2549991608000006
   Au   Os   Au   O 
    17     1    18     1
Selective dynamics
Direct
     0.0000000000000000    0.0000000000000000    0.0980900004383471   F   F   F
     0.9636302346857676    0.9965641336081820    0.2958363703002912   T   T   T
     0.1666699945381183    0.1666699945381183    0.0000000000000000   F   F   F
     0.1616496287430411    0.1704372750891162    0.1933687007944655   T   T   T
     0.3333300053544903    0.0000000000000000    0.0980900004383471   F   F   F
     0.2755044826346185    0.0666569057332331    0.3100066827396256   T   T   T
     0.5000000000056559    0.1666699945381183    0.0000000000000000   F   F   F
     0.4915600837698281    0.1612248146563247    0.1981942935324139   T   T   T
     0.6666700243881039    0.0000000000000000    0.0980900004383471   F   F   F
     0.6422825121990503    0.9776372548704911    0.2989651704016102   T   T   T
     0.8333299756288497    0.1666699945381183    0.0000000000000000   F   F   F
     0.8198646189652035    0.1639270603316028    0.2006187762469232   T   T   T
     0.0000000000000000    0.3333300053544903    0.0980900004383471   F   F   F
     0.0256307430055449    0.3259467688810679    0.2959534378596193   T   T   T
     0.1666699945381183    0.5000000000056559    0.0000000000000000   F   F   F
     0.1702955500336567    0.5128407454766587    0.1950511317460129   T   T   T
     0.3333300053544903    0.3333300053544903    0.0980900004383471   F   F   F
     0.3350103344211732    0.3541453735272545    0.2793911280217987   T   T   T
     0.5000000000056559    0.5000000000056559    0.0000000000000000   F   F   F
     0.5070182666576902    0.5051520547514489    0.1926682455234061   T   T   T
     0.6666700243881039    0.3333300053544903    0.0980900004383471   F   F   F
     0.6445087142532150    0.3314073191809925    0.2940818135456275   T   T   T
     0.8333299756288497    0.5000000000056559    0.0000000000000000   F   F   F
     0.8418897523043546    0.4889223880326879    0.1982559614088915   T   T   T
     0.0000000000000000    0.6666700243881039    0.0980900004383471   F   F   F
     0.0085894210961287    0.6654166383737238    0.2928958649921106   T   T   T
     0.1666699945381183    0.8333299756288497    0.0000000000000000   F   F   F
     0.1702992091840209    0.8432277731096264    0.2010101187270733   T   T   T
     0.3333300053544903    0.6666700243881039    0.0980900004383471   F   F   F
     0.3579470378510415    0.6549458237357644    0.3012674476734050   T   T   T
     0.5000000000056559    0.8333299756288497    0.0000000000000000   F   F   F
     0.4970488426388079    0.8330308951316182    0.1935613245288698   T   T   T
     0.6666700243881039    0.6666700243881039    0.0980900004383471   F   F   F
     0.6859698984144338    0.6528184797076387    0.2933973063715323   T   T   T
     0.8333299756288497    0.8333299756288497    0.0000000000000000   F   F   F
     0.8319012869908397    0.8304861491748643    0.1957936971215735   T   T   T
     0.4194330427093459    0.8855739276415699    0.3352116226276248   T   T   T
 
  0.00000000E+00  0.00000000E+00  0.00000000E+00
  0.00000000E+00  0.00000000E+00  0.00000000E+00
  0.00000000E+00  0.00000000E+00  0.00000000E+00
  0.00000000E+00  0.00000000E+00  0.00000000E+00
  0.00000000E+00  0.00000000E+00  0.00000000E+00
  0.00000000E+00  0.00000000E+00  0.00000000E+00
  0.00000000E+00  0.00000000E+00  0.00000000E+00
  0.00000000E+00  0.00000000E+00  0.00000000E+00
  0.00000000E+00  0.00000000E+00  0.00000000E+00
  0.00000000E+00  0.00000000E+00  0.00000000E+00
  0.00000000E+00  0.00000000E+00  0.00000000E+00
  0.00000000E+00  0.00000000E+00  0.00000000E+00
  0.00000000E+00  0.00000000E+00  0.00000000E+00
  0.00000000E+00  0.00000000E+00  0.00000000E+00
  0.00000000E+00  0.00000000E+00  0.00000000E+00
  0.00000000E+00  0.00000000E+00  0.00000000E+00
  0.00000000E+00  0.00000000E+00  0.00000000E+00
  0.00000000E+00  0.00000000E+00  0.00000000E+00
  0.00000000E+00  0.00000000E+00  0.00000000E+00
  0.00000000E+00  0.00000000E+00  0.00000000E+00
  0.00000000E+00  0.00000000E+00  0.00000000E+00
  0.00000000E+00  0.00000000E+00  0.00000000E+00
  0.00000000E+00  0.00000000E+00  0.00000000E+00
  0.00000000E+00  0.00000000E+00  0.00000000E+00
  0.00000000E+00  0.00000000E+00  0.00000000E+00
  0.00000000E+00  0.00000000E+00  0.00000000E+00
  0.00000000E+00  0.00000000E+00  0.00000000E+00
  0.00000000E+00  0.00000000E+00  0.00000000E+00
  0.00000000E+00  0.00000000E+00  0.00000000E+00
  0.00000000E+00  0.00000000E+00  0.00000000E+00
  0.00000000E+00  0.00000000E+00  0.00000000E+00
  0.00000000E+00  0.00000000E+00  0.00000000E+00
  0.00000000E+00  0.00000000E+00  0.00000000E+00
  0.00000000E+00  0.00000000E+00  0.00000000E+00
  0.00000000E+00  0.00000000E+00  0.00000000E+00
  0.00000000E+00  0.00000000E+00  0.00000000E+00
  0.00000000E+00  0.00000000E+00  0.00000000E+00
