Cu C  H  O                              
   1.00000000000000     
     9.2802000045999993    0.0000000000000000    0.0000000000000000
     0.7138587315000000    8.1079353622999992    0.0000000000000000
     0.0000000000000000    0.0000000000000000   23.8132991790999995
   Cu   C    H    O 
    56     1     4     1
Selective dynamics
Direct
  0.2508300000000006  0.1677699999999973  0.0201899999999995   F   F   F
  0.7779600000000002  0.3150600000000026  0.0336500000000015   F   F   F
  0.3593600000000023  0.7569200000000009  0.0740199999999973   F   F   F
  0.4678800000000010  0.3460699999999974  0.1278500000000022   F   F   F
  0.0492800000000031  0.7879300000000029  0.1682300000000012   F   F   F
  0.1600177728958843  0.3786325045507209  0.2235681913760649   T   T   T
  0.8864900000000020  0.9042099999999991  0.0874799999999993   F   F   F
  0.9950199999999967  0.4933600000000027  0.1413099999999972   F   F   F
  0.5764100000000028  0.9352200000000011  0.1816900000000032   F   F   F
  0.6855429769461556  0.5291240214188973  0.2391510791416520   T   T   T
  0.7966315753670795  0.1226704316968003  0.2923127975833114   T   T   T
  0.2685550836865404  0.9735066904657003  0.2789975202559473   T   T   T
  0.3725620162992294  0.5528429056564340  0.3405695912418782   T   T   T
  0.9083566684490177  0.7075650575049768  0.3437815836687160   T   T   T
  0.0415300000000016  0.3887000000000000  0.0403700000000029   F   F   F
  0.9872599999999991  0.0941299999999998  0.0134600000000020   F   F   F
  0.4601299999999995  0.9468400000000017  0.0000000000000000   F   F   F
  0.5686600000000013  0.5359899999999982  0.0538299999999978   F   F   F
  0.6771900000000031  0.1251400000000018  0.1076699999999988   F   F   F
  0.1500600000000034  0.9778499999999966  0.0942099999999968   F   F   F
  0.2585800000000020  0.5670000000000002  0.1480400000000017   F   F   F
  0.3685277790988458  0.1579455603384249  0.2024929542907189   T   T   T
  0.0612559403616148  0.1945862635729151  0.2993898190325819   T   T   T
  0.7857100000000017  0.7142899999999983  0.1614999999999966   F   F   F
  0.8956461896025919  0.3059520861968415  0.2164664535580404   T   T   T
  0.4750676159690616  0.7478606833547328  0.2602342800063080   T   T   T
  0.5864392111201217  0.3392160351080923  0.3128709297002394   T   T   T
  0.1665960257160895  0.7802549242184169  0.3498000960879650   T   T   T
  0.7057237902616814  0.9481534734425818  0.3650052320833213   T   T   T
  0.7237000000000009  0.0204900000000023  0.0067299999999975   F   F   F
  0.3050899999999999  0.4623500000000007  0.0471000000000004   F   F   F
  0.4136200000000017  0.0514999999999972  0.1009400000000014   F   F   F
  0.1043909902511341  0.0832320273072050  0.1960444960576691   T   T   T
  0.8322300000000027  0.6096300000000028  0.0605600000000024   F   F   F
  0.9407500000000013  0.1987799999999993  0.1143900000000002   F   F   F
  0.5221500000000034  0.6406399999999977  0.1547699999999992   F   F   F
  0.6319035310406117  0.2329656965868566  0.2095102055960101   T   T   T
  0.2165105245023829  0.6726358444441206  0.2503077735815773   T   T   T
  0.3238709184640107  0.2632113338584359  0.3053296145208640   T   T   T
  0.7379615395235083  0.8251948188073235  0.2645813354155231   T   T   T
  0.8522479448329331  0.4124422833027545  0.3198994813948726   T   T   T
  0.4176594624903706  0.8686956058918536  0.3583112602495358   T   T   T
  0.9664588762438564  0.0007831166020793  0.3682101912968266   T   T   T
  0.5144000000000020  0.2414199999999980  0.0269199999999969   F   F   F
  0.0957900000000009  0.6832800000000034  0.0672899999999998   F   F   F
  0.2043200000000027  0.2724299999999999  0.1211199999999977   F   F   F
  0.6229200000000006  0.8305599999999984  0.0807500000000019   F   F   F
  0.7314500000000024  0.4197100000000020  0.1345799999999997   F   F   F
  0.8406687129945257  0.0107912682134561  0.1895974621900738   T   T   T
  0.3128499999999974  0.8615700000000004  0.1749599999999987   F   F   F
  0.4228286239413793  0.4553453267779584  0.2321002379362322   T   T   T
  0.5318458745821829  0.0474998979685436  0.2844779726349579   T   T   T
  0.0063085509400988  0.8974590467907850  0.2699548790372899   T   T   T
  0.1132355118831928  0.4835567770292118  0.3250108515024308   T   T   T
  0.9502913242680134  0.6009177153773396  0.2435431103073514   T   T   T
  0.6451942962331898  0.6303138960063959  0.3416145455980992   T   T   T
  0.3428885404867059  0.5139822439622480  0.4235935530504558   T   T   T
  0.4510792677566211  0.4687382076041369  0.4381201611807279   T   T   T
  0.3076322374456531  0.6277719043629093  0.4459968303513349   T   T   T
  0.2672567134345767  0.4217383953029801  0.4322815054292278   T   T   T
  0.5862403016187494  0.7852052742323562  0.4500919672530032   T   T   T
  0.5850622493056813  0.8059983439637177  0.4100763139735052   T   T   T
 
  0.00000000E+00  0.00000000E+00  0.00000000E+00
  0.00000000E+00  0.00000000E+00  0.00000000E+00
  0.00000000E+00  0.00000000E+00  0.00000000E+00
  0.00000000E+00  0.00000000E+00  0.00000000E+00
  0.00000000E+00  0.00000000E+00  0.00000000E+00
  0.00000000E+00  0.00000000E+00  0.00000000E+00
  0.00000000E+00  0.00000000E+00  0.00000000E+00
  0.00000000E+00  0.00000000E+00  0.00000000E+00
  0.00000000E+00  0.00000000E+00  0.00000000E+00
  0.00000000E+00  0.00000000E+00  0.00000000E+00
  0.00000000E+00  0.00000000E+00  0.00000000E+00
  0.00000000E+00  0.00000000E+00  0.00000000E+00
  0.00000000E+00  0.00000000E+00  0.00000000E+00
  0.00000000E+00  0.00000000E+00  0.00000000E+00
  0.00000000E+00  0.00000000E+00  0.00000000E+00
  0.00000000E+00  0.00000000E+00  0.00000000E+00
  0.00000000E+00  0.00000000E+00  0.00000000E+00
  0.00000000E+00  0.00000000E+00  0.00000000E+00
  0.00000000E+00  0.00000000E+00  0.00000000E+00
  0.00000000E+00  0.00000000E+00  0.00000000E+00
  0.00000000E+00  0.00000000E+00  0.00000000E+00
  0.00000000E+00  0.00000000E+00  0.00000000E+00
  0.00000000E+00  0.00000000E+00  0.00000000E+00
  0.00000000E+00  0.00000000E+00  0.00000000E+00
  0.00000000E+00  0.00000000E+00  0.00000000E+00
  0.00000000E+00  0.00000000E+00  0.00000000E+00
  0.00000000E+00  0.00000000E+00  0.00000000E+00
  0.00000000E+00  0.00000000E+00  0.00000000E+00
  0.00000000E+00  0.00000000E+00  0.00000000E+00
  0.00000000E+00  0.00000000E+00  0.00000000E+00
  0.00000000E+00  0.00000000E+00  0.00000000E+00
  0.00000000E+00  0.00000000E+00  0.00000000E+00
  0.00000000E+00  0.00000000E+00  0.00000000E+00
  0.00000000E+00  0.00000000E+00  0.00000000E+00
  0.00000000E+00  0.00000000E+00  0.00000000E+00
  0.00000000E+00  0.00000000E+00  0.00000000E+00
  0.00000000E+00  0.00000000E+00  0.00000000E+00
  0.00000000E+00  0.00000000E+00  0.00000000E+00
  0.00000000E+00  0.00000000E+00  0.00000000E+00
  0.00000000E+00  0.00000000E+00  0.00000000E+00
  0.00000000E+00  0.00000000E+00  0.00000000E+00
  0.00000000E+00  0.00000000E+00  0.00000000E+00
  0.00000000E+00  0.00000000E+00  0.00000000E+00
  0.00000000E+00  0.00000000E+00  0.00000000E+00
  0.00000000E+00  0.00000000E+00  0.00000000E+00
  0.00000000E+00  0.00000000E+00  0.00000000E+00
  0.00000000E+00  0.00000000E+00  0.00000000E+00
  0.00000000E+00  0.00000000E+00  0.00000000E+00
  0.00000000E+00  0.00000000E+00  0.00000000E+00
  0.00000000E+00  0.00000000E+00  0.00000000E+00
  0.00000000E+00  0.00000000E+00  0.00000000E+00
  0.00000000E+00  0.00000000E+00  0.00000000E+00
  0.00000000E+00  0.00000000E+00  0.00000000E+00
  0.00000000E+00  0.00000000E+00  0.00000000E+00
  0.00000000E+00  0.00000000E+00  0.00000000E+00
  0.00000000E+00  0.00000000E+00  0.00000000E+00
  0.00000000E+00  0.00000000E+00  0.00000000E+00
  0.00000000E+00  0.00000000E+00  0.00000000E+00
  0.00000000E+00  0.00000000E+00  0.00000000E+00
  0.00000000E+00  0.00000000E+00  0.00000000E+00
  0.00000000E+00  0.00000000E+00  0.00000000E+00
  0.00000000E+00  0.00000000E+00  0.00000000E+00
