Cu O                                    
   1.00000000000000     
     9.2802000045999993    0.0000000000000000    0.0000000000000000
     0.7138587315000000    8.1079353622999992    0.0000000000000000
     0.0000000000000000    0.0000000000000000   23.8132991790999995
   Cu   O 
    56     1
Selective dynamics
Direct
  0.2508300000000006  0.1677699999999973  0.0201899999999995   F   F   F
  0.7779600000000002  0.3150600000000026  0.0336500000000015   F   F   F
  0.3593600000000023  0.7569200000000009  0.0740199999999973   F   F   F
  0.4678800000000010  0.3460699999999974  0.1278500000000022   F   F   F
  0.0492800000000031  0.7879300000000029  0.1682300000000012   F   F   F
  0.1592713179552769  0.3773861274465588  0.2231017176488843   T   T   T
  0.8864900000000020  0.9042099999999991  0.0874799999999993   F   F   F
  0.9950199999999967  0.4933600000000027  0.1413099999999972   F   F   F
  0.5764100000000028  0.9352200000000011  0.1816900000000032   F   F   F
  0.6856749541875228  0.5269465224644824  0.2389262014352023   T   T   T
  0.7931726578459247  0.1205884949116219  0.2922208002811152   T   T   T
  0.2679929531724977  0.9725932940070119  0.2795863228433136   T   T   T
  0.3741658471585278  0.5567478263932570  0.3294256767785411   T   T   T
  0.9083211294549773  0.7047288552215184  0.3436918422595229   T   T   T
  0.0415300000000016  0.3887000000000000  0.0403700000000029   F   F   F
  0.9872599999999991  0.0941299999999998  0.0134600000000020   F   F   F
  0.4601299999999995  0.9468400000000017  0.0000000000000000   F   F   F
  0.5686600000000013  0.5359899999999982  0.0538299999999978   F   F   F
  0.6771900000000031  0.1251400000000018  0.1076699999999988   F   F   F
  0.1500600000000034  0.9778499999999966  0.0942099999999968   F   F   F
  0.2585800000000020  0.5670000000000002  0.1480400000000017   F   F   F
  0.3681622530467517  0.1558584144470817  0.2027126687028387   T   T   T
  0.0605928584526968  0.1938129120546208  0.2995125269249225   T   T   T
  0.7857100000000017  0.7142899999999983  0.1614999999999966   F   F   F
  0.8959007078049237  0.3052742646863004  0.2163513076581252   T   T   T
  0.4763692901512129  0.7489652067915212  0.2573645888641916   T   T   T
  0.5847194139287301  0.3373819992382425  0.3125096062346475   T   T   T
  0.1664704983345515  0.7799930183343583  0.3498415966873710   T   T   T
  0.7000088194050323  0.9381931802755290  0.3656006539739693   T   T   T
  0.7237000000000009  0.0204900000000023  0.0067299999999975   F   F   F
  0.3050899999999999  0.4623500000000007  0.0471000000000004   F   F   F
  0.4136200000000017  0.0514999999999972  0.1009400000000014   F   F   F
  0.1044787609935171  0.0829611719766217  0.1961624581601066   T   T   T
  0.8322300000000027  0.6096300000000028  0.0605600000000024   F   F   F
  0.9407500000000013  0.1987799999999993  0.1143900000000002   F   F   F
  0.5221500000000034  0.6406399999999977  0.1547699999999992   F   F   F
  0.6325609039005330  0.2313381989967713  0.2091854261638105   T   T   T
  0.2116887147212179  0.6754799420904802  0.2496176777263646   T   T   T
  0.3232139875797988  0.2642572953137256  0.3051255522500599   T   T   T
  0.7381133947891527  0.8232783060202227  0.2641992881675667   T   T   T
  0.8508638327275035  0.4101415007443989  0.3188110696525185   T   T   T
  0.4237919175811596  0.8553020924535730  0.3581265731482890   T   T   T
  0.9602297283153116  0.0009624626181338  0.3678275798867204   T   T   T
  0.5144000000000020  0.2414199999999980  0.0269199999999969   F   F   F
  0.0957900000000009  0.6832800000000034  0.0672899999999998   F   F   F
  0.2043200000000027  0.2724299999999999  0.1211199999999977   F   F   F
  0.6229200000000006  0.8305599999999984  0.0807500000000019   F   F   F
  0.7314500000000024  0.4197100000000020  0.1345799999999997   F   F   F
  0.8401863506369808  0.0106532367743978  0.1893469467223213   T   T   T
  0.3128499999999974  0.8615700000000004  0.1749599999999987   F   F   F
  0.4232550300313255  0.4515353265012435  0.2297828859325669   T   T   T
  0.5302823973596280  0.0471584524703688  0.2848952618833314   T   T   T
  0.0027698646004181  0.8992706580040265  0.2700564400861389   T   T   T
  0.1134452393292355  0.4833147953706114  0.3251864005093817   T   T   T
  0.9486240512771760  0.6000212778973785  0.2433866276448001   T   T   T
  0.6437576959645070  0.6250174038177850  0.3428588542697492   T   T   T
  0.5889411381838898  0.7845791016197343  0.4013665621678328   T   T   T
 
  0.00000000E+00  0.00000000E+00  0.00000000E+00
  0.00000000E+00  0.00000000E+00  0.00000000E+00
  0.00000000E+00  0.00000000E+00  0.00000000E+00
  0.00000000E+00  0.00000000E+00  0.00000000E+00
  0.00000000E+00  0.00000000E+00  0.00000000E+00
  0.00000000E+00  0.00000000E+00  0.00000000E+00
  0.00000000E+00  0.00000000E+00  0.00000000E+00
  0.00000000E+00  0.00000000E+00  0.00000000E+00
  0.00000000E+00  0.00000000E+00  0.00000000E+00
  0.00000000E+00  0.00000000E+00  0.00000000E+00
  0.00000000E+00  0.00000000E+00  0.00000000E+00
  0.00000000E+00  0.00000000E+00  0.00000000E+00
  0.00000000E+00  0.00000000E+00  0.00000000E+00
  0.00000000E+00  0.00000000E+00  0.00000000E+00
  0.00000000E+00  0.00000000E+00  0.00000000E+00
  0.00000000E+00  0.00000000E+00  0.00000000E+00
  0.00000000E+00  0.00000000E+00  0.00000000E+00
  0.00000000E+00  0.00000000E+00  0.00000000E+00
  0.00000000E+00  0.00000000E+00  0.00000000E+00
  0.00000000E+00  0.00000000E+00  0.00000000E+00
  0.00000000E+00  0.00000000E+00  0.00000000E+00
  0.00000000E+00  0.00000000E+00  0.00000000E+00
  0.00000000E+00  0.00000000E+00  0.00000000E+00
  0.00000000E+00  0.00000000E+00  0.00000000E+00
  0.00000000E+00  0.00000000E+00  0.00000000E+00
  0.00000000E+00  0.00000000E+00  0.00000000E+00
  0.00000000E+00  0.00000000E+00  0.00000000E+00
  0.00000000E+00  0.00000000E+00  0.00000000E+00
  0.00000000E+00  0.00000000E+00  0.00000000E+00
  0.00000000E+00  0.00000000E+00  0.00000000E+00
  0.00000000E+00  0.00000000E+00  0.00000000E+00
  0.00000000E+00  0.00000000E+00  0.00000000E+00
  0.00000000E+00  0.00000000E+00  0.00000000E+00
  0.00000000E+00  0.00000000E+00  0.00000000E+00
  0.00000000E+00  0.00000000E+00  0.00000000E+00
  0.00000000E+00  0.00000000E+00  0.00000000E+00
  0.00000000E+00  0.00000000E+00  0.00000000E+00
  0.00000000E+00  0.00000000E+00  0.00000000E+00
  0.00000000E+00  0.00000000E+00  0.00000000E+00
  0.00000000E+00  0.00000000E+00  0.00000000E+00
  0.00000000E+00  0.00000000E+00  0.00000000E+00
  0.00000000E+00  0.00000000E+00  0.00000000E+00
  0.00000000E+00  0.00000000E+00  0.00000000E+00
  0.00000000E+00  0.00000000E+00  0.00000000E+00
  0.00000000E+00  0.00000000E+00  0.00000000E+00
  0.00000000E+00  0.00000000E+00  0.00000000E+00
  0.00000000E+00  0.00000000E+00  0.00000000E+00
  0.00000000E+00  0.00000000E+00  0.00000000E+00
  0.00000000E+00  0.00000000E+00  0.00000000E+00
  0.00000000E+00  0.00000000E+00  0.00000000E+00
  0.00000000E+00  0.00000000E+00  0.00000000E+00
  0.00000000E+00  0.00000000E+00  0.00000000E+00
  0.00000000E+00  0.00000000E+00  0.00000000E+00
  0.00000000E+00  0.00000000E+00  0.00000000E+00
  0.00000000E+00  0.00000000E+00  0.00000000E+00
  0.00000000E+00  0.00000000E+00  0.00000000E+00
  0.00000000E+00  0.00000000E+00  0.00000000E+00
