Cu   C    H    O                        
   1.00000000000000     
     9.2802000045999993    0.0000000000000000    0.0000000000000000
     0.7138587315000000    8.1079353622999992    0.0000000000000000
     0.0000000000000000    0.0000000000000000   23.8132991790999995
   Cu   C    H    O 
    56     1     4     1
Selective dynamics
Direct
  0.2508300000000006  0.1677699999999973  0.0201899999999995   F   F   F
  0.7779600000000002  0.3150600000000026  0.0336500000000015   F   F   F
  0.3593600000000023  0.7569200000000009  0.0740199999999973   F   F   F
  0.4678800000000010  0.3460699999999974  0.1278500000000022   F   F   F
  0.0492800000000031  0.7879300000000029  0.1682300000000012   F   F   F
  0.1584012945267025  0.3779004146404218  0.2236336189490553   T   T   T
  0.8864900000000020  0.9042099999999991  0.0874799999999993   F   F   F
  0.9950199999999967  0.4933600000000027  0.1413099999999972   F   F   F
  0.5764100000000028  0.9352200000000011  0.1816900000000032   F   F   F
  0.6853517312807411  0.5266062408583314  0.2376692446622051   T   T   T
  0.7900879068107111  0.1186863902564065  0.2925213590307235   T   T   T
  0.2634319843988154  0.9781941260479644  0.2762789774732020   T   T   T
  0.3740873131675457  0.5558411574203216  0.3421122302762539   T   T   T
  0.9061111587365877  0.7047202720948962  0.3426498850618310   T   T   T
  0.0415300000000016  0.3887000000000000  0.0403700000000029   F   F   F
  0.9872599999999991  0.0941299999999998  0.0134600000000020   F   F   F
  0.4601299999999995  0.9468400000000017  0.0000000000000000   F   F   F
  0.5686600000000013  0.5359899999999982  0.0538299999999978   F   F   F
  0.6771900000000031  0.1251400000000018  0.1076699999999988   F   F   F
  0.1500600000000034  0.9778499999999966  0.0942099999999968   F   F   F
  0.2585800000000020  0.5670000000000002  0.1480400000000017   F   F   F
  0.3673419396077770  0.1599295808274993  0.2016517101130173   T   T   T
  0.0573936244104485  0.1929349427168345  0.2999422351072143   T   T   T
  0.7857100000000017  0.7142899999999983  0.1614999999999966   F   F   F
  0.8951460312569428  0.3040924406688222  0.2162933871196106   T   T   T
  0.4733328799985434  0.7485787457834856  0.2584526256579454   T   T   T
  0.5840572688503819  0.3366639585098174  0.3123440149669509   T   T   T
  0.1606667948626598  0.7875681099463978  0.3484371506072342   T   T   T
  0.6889809107652297  0.9243111598542693  0.3658375651888321   T   T   T
  0.7237000000000009  0.0204900000000023  0.0067299999999975   F   F   F
  0.3050899999999999  0.4623500000000007  0.0471000000000004   F   F   F
  0.4136200000000017  0.0514999999999972  0.1009400000000014   F   F   F
  0.1032348347174508  0.0842223014465596  0.1953712075458473   T   T   T
  0.8322300000000027  0.6096300000000028  0.0605600000000024   F   F   F
  0.9407500000000013  0.1987799999999993  0.1143900000000002   F   F   F
  0.5221500000000034  0.6406399999999977  0.1547699999999992   F   F   F
  0.6308412272905154  0.2327372353984543  0.2089705082796643   T   T   T
  0.2149212807012706  0.6744180636886433  0.2513775645243287   T   T   T
  0.3218392433641257  0.2625662034307081  0.3060394489708762   T   T   T
  0.7373819295847649  0.8235008807074581  0.2633700937561405   T   T   T
  0.8512776009249930  0.4090910421270533  0.3179742010507431   T   T   T
  0.4139156371210044  0.8822951459139948  0.3541747836878483   T   T   T
  0.9488522670539142  0.9968774537894992  0.3677715757179658   T   T   T
  0.5144000000000020  0.2414199999999980  0.0269199999999969   F   F   F
  0.0957900000000009  0.6832800000000034  0.0672899999999998   F   F   F
  0.2043200000000027  0.2724299999999999  0.1211199999999977   F   F   F
  0.6229200000000006  0.8305599999999984  0.0807500000000019   F   F   F
  0.7314500000000024  0.4197100000000020  0.1345799999999997   F   F   F
  0.8394440673090793  0.0108679505532441  0.1890852913111240   T   T   T
  0.3128499999999974  0.8615700000000004  0.1749599999999987   F   F   F
  0.4201626829396370  0.4556801868659878  0.2331968460539113   T   T   T
  0.5302949705839025  0.0491394324540368  0.2832573021439856   T   T   T
  0.0020191701914147  0.8999778814678845  0.2691284452496810   T   T   T
  0.1125124284547186  0.4852561274950966  0.3242481212387779   T   T   T
  0.9485518142457368  0.6006204358543941  0.2426928947699449   T   T   T
  0.6462857795603163  0.6253128210113142  0.3374397853815066   T   T   T
  0.3811156963760376  0.5337370977393350  0.4361440236476615   T   T   T
  0.4693600998135365  0.4689027096479476  0.4601116568170655   T   T   T
  0.3193555231550425  0.6230140397641820  0.4631730623784701   T   T   T
  0.3076373008210396  0.4399841928736241  0.4252850176439529   T   T   T
  0.4749180924669193  0.6507056398334641  0.4134704667340422   T   T   T
  0.5555645334406835  0.7562564861277619  0.4015563244662167   T   T   T
 
  0.00000000E+00  0.00000000E+00  0.00000000E+00
  0.00000000E+00  0.00000000E+00  0.00000000E+00
  0.00000000E+00  0.00000000E+00  0.00000000E+00
  0.00000000E+00  0.00000000E+00  0.00000000E+00
  0.00000000E+00  0.00000000E+00  0.00000000E+00
  0.00000000E+00  0.00000000E+00  0.00000000E+00
  0.00000000E+00  0.00000000E+00  0.00000000E+00
  0.00000000E+00  0.00000000E+00  0.00000000E+00
  0.00000000E+00  0.00000000E+00  0.00000000E+00
  0.00000000E+00  0.00000000E+00  0.00000000E+00
  0.00000000E+00  0.00000000E+00  0.00000000E+00
  0.00000000E+00  0.00000000E+00  0.00000000E+00
  0.00000000E+00  0.00000000E+00  0.00000000E+00
  0.00000000E+00  0.00000000E+00  0.00000000E+00
  0.00000000E+00  0.00000000E+00  0.00000000E+00
  0.00000000E+00  0.00000000E+00  0.00000000E+00
  0.00000000E+00  0.00000000E+00  0.00000000E+00
  0.00000000E+00  0.00000000E+00  0.00000000E+00
  0.00000000E+00  0.00000000E+00  0.00000000E+00
  0.00000000E+00  0.00000000E+00  0.00000000E+00
  0.00000000E+00  0.00000000E+00  0.00000000E+00
  0.00000000E+00  0.00000000E+00  0.00000000E+00
  0.00000000E+00  0.00000000E+00  0.00000000E+00
  0.00000000E+00  0.00000000E+00  0.00000000E+00
  0.00000000E+00  0.00000000E+00  0.00000000E+00
  0.00000000E+00  0.00000000E+00  0.00000000E+00
  0.00000000E+00  0.00000000E+00  0.00000000E+00
  0.00000000E+00  0.00000000E+00  0.00000000E+00
  0.00000000E+00  0.00000000E+00  0.00000000E+00
  0.00000000E+00  0.00000000E+00  0.00000000E+00
  0.00000000E+00  0.00000000E+00  0.00000000E+00
  0.00000000E+00  0.00000000E+00  0.00000000E+00
  0.00000000E+00  0.00000000E+00  0.00000000E+00
  0.00000000E+00  0.00000000E+00  0.00000000E+00
  0.00000000E+00  0.00000000E+00  0.00000000E+00
  0.00000000E+00  0.00000000E+00  0.00000000E+00
  0.00000000E+00  0.00000000E+00  0.00000000E+00
  0.00000000E+00  0.00000000E+00  0.00000000E+00
  0.00000000E+00  0.00000000E+00  0.00000000E+00
  0.00000000E+00  0.00000000E+00  0.00000000E+00
  0.00000000E+00  0.00000000E+00  0.00000000E+00
  0.00000000E+00  0.00000000E+00  0.00000000E+00
  0.00000000E+00  0.00000000E+00  0.00000000E+00
  0.00000000E+00  0.00000000E+00  0.00000000E+00
  0.00000000E+00  0.00000000E+00  0.00000000E+00
  0.00000000E+00  0.00000000E+00  0.00000000E+00
  0.00000000E+00  0.00000000E+00  0.00000000E+00
  0.00000000E+00  0.00000000E+00  0.00000000E+00
  0.00000000E+00  0.00000000E+00  0.00000000E+00
  0.00000000E+00  0.00000000E+00  0.00000000E+00
  0.00000000E+00  0.00000000E+00  0.00000000E+00
  0.00000000E+00  0.00000000E+00  0.00000000E+00
  0.00000000E+00  0.00000000E+00  0.00000000E+00
  0.00000000E+00  0.00000000E+00  0.00000000E+00
  0.00000000E+00  0.00000000E+00  0.00000000E+00
  0.00000000E+00  0.00000000E+00  0.00000000E+00
  0.00000000E+00  0.00000000E+00  0.00000000E+00
  0.00000000E+00  0.00000000E+00  0.00000000E+00
  0.00000000E+00  0.00000000E+00  0.00000000E+00
  0.00000000E+00  0.00000000E+00  0.00000000E+00
  0.00000000E+00  0.00000000E+00  0.00000000E+00
  0.00000000E+00  0.00000000E+00  0.00000000E+00
