Au Zr Au O  C  H                        
   1.00000000000000     
     8.8458995818999995    0.0000000000000000    0.0000000000000000
    -4.4229497909999997    7.6607737573000003    0.0000000000000000
     0.0000000000000000    0.0000000000000000   22.2227001189999989
   Au   Zr   Au   O    C    H 
    17     1    18     1     1     4
Selective dynamics
Direct
     0.0000000000000000    0.0000000000000000    0.0000000000000000   F   F   F
     0.0017758500245926    0.0001208633875396    0.3332554217074833   T   T   T
     0.2242590953382853    0.1151836902168846    0.2192629283728238   T   T   T
     0.1111100036335770    0.2222200072646459    0.1083399993748557   F   F   F
     0.3333300181287697    0.0000000000000000    0.0000000000000000   F   F   F
     0.3317016659809084    0.0001369488124114    0.3332518148921168   T   T   T
     0.5567724528504002    0.1087485468614899    0.2196755220809629   T   T   T
     0.4444399948572268    0.2222200072646459    0.1083399993748557   F   F   F
     0.6666700087876549    0.0000000000000000    0.0000000000000000   F   F   F
     0.6736679361291475    0.0139873108568823    0.3395611910931131   T   T   T
     0.8853375058791402    0.1087460471072437    0.2196748658266826   T   T   T
     0.7777800124212320    0.2222200072646459    0.1083399993748557   F   F   F
     0.9999999925351943    0.3333300031953925    0.0000000000000000   F   F   F
     0.9988267945914289    0.3267320062260799    0.3320355875093033   T   T   T
     0.2261817609284454    0.4475585982940531    0.2224223949074844   T   T   T
     0.1111100262929554    0.5555600161073073    0.1083399993748557   F   F   F
     0.3333300106639641    0.3333300031953925    0.0000000000000000   F   F   F
     0.3296275345992754    0.3259223213241774    0.3291812618630491   T   T   T
     0.5547151219212483    0.4475397074121489    0.2224215859242894   T   T   T
     0.4444400175166052    0.5555600161073073    0.1083399993748557   F   F   F
     0.6666700147754128    0.3333300031953925    0.0000000000000000   F   F   F
     0.6612509459182226    0.3267336995320933    0.3320431056150199   T   T   T
     0.8891832088989264    0.4450194384272017    0.2166148196939905   T   T   T
     0.7777800080624431    0.5555600161073073    0.1083399993748557   F   F   F
     0.0000000093958050    0.6666700275717332    0.0000000000000000   F   F   F
     0.9975307934304253    0.6617101425209611    0.3288944847964290   T   T   T
     0.2238132115556140    0.7782697014605435    0.2193494937760923   T   T   T
     0.1111100207962252    0.8888900503700583    0.1083399993748557   F   F   F
     0.3333300276376221    0.6666700275717332    0.0000000000000000   F   F   F
     0.3063095392993015    0.6413187378084042    0.3463830198725266   T   T   T
     0.5556624806341601    0.7779840554046269    0.2240584686323822   T   T   T
     0.4444400120198750    0.8888900503700583    0.1083399993748557   F   F   F
     0.6666700181834599    0.6666700275717332    0.0000000000000000   F   F   F
     0.6683374613562970    0.6413177450645003    0.3463598592434712   T   T   T
     0.8877988456816909    0.7782604376568817    0.2193453244199309   T   T   T
     0.7777800026787602    0.8888900503700583    0.1083399993748557   F   F   F
     0.5511988224279440    0.7690285833663202    0.3942077277773782   T   T   T
     0.3265596655674776    0.3198065340629089    0.4654211673144881   T   T   T
     0.2686328786326482    0.2039257743496324    0.4361366457168488   T   T   T
     0.4257620506697243    0.3140482028574416    0.4928428903332441   T   T   T
     0.2216291488074585    0.3140670758551919    0.4928372231432578   T   T   T
     0.3891208170055621    0.4448715068732084    0.4413702162070683   T   T   T
 
  0.00000000E+00  0.00000000E+00  0.00000000E+00
  0.00000000E+00  0.00000000E+00  0.00000000E+00
  0.00000000E+00  0.00000000E+00  0.00000000E+00
  0.00000000E+00  0.00000000E+00  0.00000000E+00
  0.00000000E+00  0.00000000E+00  0.00000000E+00
  0.00000000E+00  0.00000000E+00  0.00000000E+00
  0.00000000E+00  0.00000000E+00  0.00000000E+00
  0.00000000E+00  0.00000000E+00  0.00000000E+00
  0.00000000E+00  0.00000000E+00  0.00000000E+00
  0.00000000E+00  0.00000000E+00  0.00000000E+00
  0.00000000E+00  0.00000000E+00  0.00000000E+00
  0.00000000E+00  0.00000000E+00  0.00000000E+00
  0.00000000E+00  0.00000000E+00  0.00000000E+00
  0.00000000E+00  0.00000000E+00  0.00000000E+00
  0.00000000E+00  0.00000000E+00  0.00000000E+00
  0.00000000E+00  0.00000000E+00  0.00000000E+00
  0.00000000E+00  0.00000000E+00  0.00000000E+00
  0.00000000E+00  0.00000000E+00  0.00000000E+00
  0.00000000E+00  0.00000000E+00  0.00000000E+00
  0.00000000E+00  0.00000000E+00  0.00000000E+00
  0.00000000E+00  0.00000000E+00  0.00000000E+00
  0.00000000E+00  0.00000000E+00  0.00000000E+00
  0.00000000E+00  0.00000000E+00  0.00000000E+00
  0.00000000E+00  0.00000000E+00  0.00000000E+00
  0.00000000E+00  0.00000000E+00  0.00000000E+00
  0.00000000E+00  0.00000000E+00  0.00000000E+00
  0.00000000E+00  0.00000000E+00  0.00000000E+00
  0.00000000E+00  0.00000000E+00  0.00000000E+00
  0.00000000E+00  0.00000000E+00  0.00000000E+00
  0.00000000E+00  0.00000000E+00  0.00000000E+00
  0.00000000E+00  0.00000000E+00  0.00000000E+00
  0.00000000E+00  0.00000000E+00  0.00000000E+00
  0.00000000E+00  0.00000000E+00  0.00000000E+00
  0.00000000E+00  0.00000000E+00  0.00000000E+00
  0.00000000E+00  0.00000000E+00  0.00000000E+00
  0.00000000E+00  0.00000000E+00  0.00000000E+00
  0.00000000E+00  0.00000000E+00  0.00000000E+00
  0.00000000E+00  0.00000000E+00  0.00000000E+00
  0.00000000E+00  0.00000000E+00  0.00000000E+00
  0.00000000E+00  0.00000000E+00  0.00000000E+00
  0.00000000E+00  0.00000000E+00  0.00000000E+00
  0.00000000E+00  0.00000000E+00  0.00000000E+00
