Ni  C  H  O                             
   1.00000000000000     
    10.5600004195999997    0.0000000000000000    0.0000000000000000
     0.0000000000000000    7.4670000076000003    0.0000000000000000
     0.0000000000000000    0.0000000000000000   18.7334995269999993
   Ni   C    H    O 
    36     1     4     1
Selective dynamics
Direct
  0.0000000000000000  0.0000000000000000  0.0664300024246103   F   F   F
  0.0007573707321936  0.0001875266024438  0.1961874209006371   T   T   T
  0.1677261456099844  0.1678239718371558  0.1323375170968543   T   T   T
  0.1666699946084549  0.1666699946073820  0.0000000000000000   F   F   F
  0.3333300054104882  0.0000000000000000  0.0664300024246103   F   F   F
  0.3339083944471994  0.0020301289924611  0.2014777514521256   T   T   T
  0.4993130109113646  0.1677761730650964  0.1318725304561839   T   T   T
  0.5000000000189360  0.1666699946073820  0.0000000000000000   F   F   F
  0.6666700243622401  0.0000000000000000  0.0664300024246103   F   F   F
  0.6660278259230406  0.0001604093361568  0.1962219188598437   T   T   T
  0.8334075023936856  0.1673937157517688  0.1348936375592346   T   T   T
  0.8333299755998809  0.1666699946073820  0.0000000000000000   F   F   F
  0.0000000000000000  0.3333300054194055  0.0664300024246103   F   F   F
  0.0006556212553730  0.3343651159879441  0.1960780205731854   T   T   T
  0.1679142157586747  0.4997661400429650  0.1334028020873162   T   T   T
  0.1666699946084549  0.5000000000267875  0.0000000000000000   F   F   F
  0.3333300054104882  0.3333300054194055  0.0664300024246103   F   F   F
  0.3337203137059730  0.3441368570004117  0.2086827936335772   T   T   T
  0.4989235004005541  0.4998042102022921  0.1332521572968579   T   T   T
  0.5000000000189360  0.5000000000267875  0.0000000000000000   F   F   F
  0.6666700243622401  0.3333300054194055  0.0664300024246103   F   F   F
  0.6662096802968539  0.3342421095196098  0.1960730085128079   T   T   T
  0.8333718520591411  0.5003853169855393  0.1344775220925838   T   T   T
  0.8333299755998809  0.5000000000267875  0.0000000000000000   F   F   F
  0.0000000000000000  0.6666700243649828  0.0664300024246103   F   F   F
  0.0009933831959047  0.6670102175281326  0.1963092776680420   T   T   T
  0.1684806032779178  0.8349830115985574  0.1337325648963632   T   T   T
  0.1666699946084549  0.8333299755814494  0.0000000000000000   F   F   F
  0.3333300054104882  0.6666700243649828  0.0664300024246103   F   F   F
  0.3332760740188175  0.6686251839306958  0.1971872262789456   T   T   T
  0.4987221445776499  0.8346062032963961  0.1334955451476499   T   T   T
  0.5000000000189360  0.8333299755814494  0.0000000000000000   F   F   F
  0.6666700243622401  0.6666700243649828  0.0664300024246103   F   F   F
  0.6660001206052503  0.6668997000562125  0.1962921017448665   T   T   T
  0.8333955413585581  0.8333183711522232  0.1348226440708979   T   T   T
  0.8333299755998809  0.8333299755814494  0.0000000000000000   F   F   F
  0.3351527520414193  0.4808211717699647  0.3165966195278164   T   T   T
  0.4028886772990928  0.4486908837837607  0.3592961807163274   T   T   T
  0.2402633732272721  0.4956326185423929  0.3387985582661747   T   T   T
  0.3428557334705274  0.2994880736935105  0.2984328048845460   T   T   T
  0.3687423385340194  0.6147251097409719  0.2990374109801349   T   T   T
  0.3442863279045539  0.1400959530980643  0.2787643222000563   T   T   T
 
  0.00000000E+00  0.00000000E+00  0.00000000E+00
  0.00000000E+00  0.00000000E+00  0.00000000E+00
  0.00000000E+00  0.00000000E+00  0.00000000E+00
  0.00000000E+00  0.00000000E+00  0.00000000E+00
  0.00000000E+00  0.00000000E+00  0.00000000E+00
  0.00000000E+00  0.00000000E+00  0.00000000E+00
  0.00000000E+00  0.00000000E+00  0.00000000E+00
  0.00000000E+00  0.00000000E+00  0.00000000E+00
  0.00000000E+00  0.00000000E+00  0.00000000E+00
  0.00000000E+00  0.00000000E+00  0.00000000E+00
  0.00000000E+00  0.00000000E+00  0.00000000E+00
  0.00000000E+00  0.00000000E+00  0.00000000E+00
  0.00000000E+00  0.00000000E+00  0.00000000E+00
  0.00000000E+00  0.00000000E+00  0.00000000E+00
  0.00000000E+00  0.00000000E+00  0.00000000E+00
  0.00000000E+00  0.00000000E+00  0.00000000E+00
  0.00000000E+00  0.00000000E+00  0.00000000E+00
  0.00000000E+00  0.00000000E+00  0.00000000E+00
  0.00000000E+00  0.00000000E+00  0.00000000E+00
  0.00000000E+00  0.00000000E+00  0.00000000E+00
  0.00000000E+00  0.00000000E+00  0.00000000E+00
  0.00000000E+00  0.00000000E+00  0.00000000E+00
  0.00000000E+00  0.00000000E+00  0.00000000E+00
  0.00000000E+00  0.00000000E+00  0.00000000E+00
  0.00000000E+00  0.00000000E+00  0.00000000E+00
  0.00000000E+00  0.00000000E+00  0.00000000E+00
  0.00000000E+00  0.00000000E+00  0.00000000E+00
  0.00000000E+00  0.00000000E+00  0.00000000E+00
  0.00000000E+00  0.00000000E+00  0.00000000E+00
  0.00000000E+00  0.00000000E+00  0.00000000E+00
  0.00000000E+00  0.00000000E+00  0.00000000E+00
  0.00000000E+00  0.00000000E+00  0.00000000E+00
  0.00000000E+00  0.00000000E+00  0.00000000E+00
  0.00000000E+00  0.00000000E+00  0.00000000E+00
  0.00000000E+00  0.00000000E+00  0.00000000E+00
  0.00000000E+00  0.00000000E+00  0.00000000E+00
  0.00000000E+00  0.00000000E+00  0.00000000E+00
  0.00000000E+00  0.00000000E+00  0.00000000E+00
  0.00000000E+00  0.00000000E+00  0.00000000E+00
  0.00000000E+00  0.00000000E+00  0.00000000E+00
  0.00000000E+00  0.00000000E+00  0.00000000E+00
  0.00000000E+00  0.00000000E+00  0.00000000E+00
