Ag Y  Ag O  C  H                        
   1.00000000000000     
     8.8247003554999992    0.0000000000000000    0.0000000000000000
     0.0000000000000000    8.8247003554999992    0.0000000000000000
     0.0000000000000000    0.0000000000000000   21.2399997710999990
   Ag   Y    Ag   O    C    H 
    17     1    18     1     1     4
Selective dynamics
Direct
  0.0000000000000000  0.0000000000000000  0.0979299992192182   F   F   F
  0.0021359982752385  0.0002993342762765  0.3012775417468918   T   T   T
  0.1666699946455736  0.1666699946455736  0.0000000000000000   F   F   F
  0.1673462408851774  0.1697725173103362  0.2002672009964013   T   T   T
  0.3333300053827557  0.0000000000000000  0.0979299992192182   F   F   F
  0.3333071039982560  0.0010280826861662  0.2973452309378497   T   T   T
  0.5000000000283293  0.1666699946455736  0.0000000000000000   F   F   F
  0.4991661117229461  0.1696136557164623  0.2002135077096349   T   T   T
  0.6666700243632988  0.0000000000000000  0.0979299992192182   F   F   F
  0.6643912804701568  0.0001929608448993  0.3012765551275411   T   T   T
  0.8333299756083719  0.1666699946455736  0.0000000000000000   F   F   F
  0.8332957188825200  0.1621550397777943  0.1978939603730434   T   T   T
  0.0000000000000000  0.3333300053827557  0.0979299992192182   F   F   F
  0.9941421741058116  0.3301725679968945  0.2981962093362016   T   T   T
  0.1666699946455736  0.5000000000283293  0.0000000000000000   F   F   F
  0.1700476769272013  0.4984596874418468  0.2022612832040247   T   T   T
  0.3333300053827557  0.3333300053827557  0.0979299992192182   F   F   F
  0.3331953415870669  0.3434506364880967  0.3369435713064626   T   T   T
  0.5000000000283293  0.5000000000283293  0.0000000000000000   F   F   F
  0.4965993189451786  0.4983750411246348  0.2022381042941128   T   T   T
  0.6666700243632988  0.3333300053827557  0.0979299992192182   F   F   F
  0.6723080443336725  0.3300265439689755  0.2981540054556668   T   T   T
  0.8333299756083719  0.5000000000283293  0.0000000000000000   F   F   F
  0.8333229047750144  0.5001391021678280  0.1979966498766381   T   T   T
  0.0000000000000000  0.6666700243632988  0.0979299992192182   F   F   F
  0.9981128483498698  0.6649067957246351  0.2998219195928356   T   T   T
  0.1666699946455736  0.8333299756083719  0.0000000000000000   F   F   F
  0.1664227098417155  0.8322885433375059  0.1990838088717047   T   T   T
  0.3333300053827557  0.6666700243632988  0.0979299992192182   F   F   F
  0.3333525881927764  0.6846652740773481  0.3023308513741357   T   T   T
  0.5000000000283293  0.8333299756083719  0.0000000000000000   F   F   F
  0.5002066040565580  0.8321420304656124  0.1990814282970144   T   T   T
  0.6666700243632988  0.6666700243632988  0.0979299992192182   F   F   F
  0.6686053006361576  0.6648314790268226  0.2998173042748249   T   T   T
  0.8333299756083719  0.8333299756083719  0.0000000000000000   F   F   F
  0.8333414215063765  0.8331556994677248  0.2005528552086546   T   T   T
  0.3333567717830530  0.5264337939773284  0.3855280708977945   T   T   T
  0.3333395818596817  0.2166433900150856  0.5063244022481357   T   T   T
  0.3333437823084336  0.1361314922810909  0.4670947657926476   T   T   T
  0.4343314040982866  0.1969799580897039  0.5347179777514578   T   T   T
  0.2323590663421515  0.1969834331717820  0.5347187679385813   T   T   T
  0.3333482550883080  0.3334973907548439  0.4895014469632512   T   T   T
 
  0.00000000E+00  0.00000000E+00  0.00000000E+00
  0.00000000E+00  0.00000000E+00  0.00000000E+00
  0.00000000E+00  0.00000000E+00  0.00000000E+00
  0.00000000E+00  0.00000000E+00  0.00000000E+00
  0.00000000E+00  0.00000000E+00  0.00000000E+00
  0.00000000E+00  0.00000000E+00  0.00000000E+00
  0.00000000E+00  0.00000000E+00  0.00000000E+00
  0.00000000E+00  0.00000000E+00  0.00000000E+00
  0.00000000E+00  0.00000000E+00  0.00000000E+00
  0.00000000E+00  0.00000000E+00  0.00000000E+00
  0.00000000E+00  0.00000000E+00  0.00000000E+00
  0.00000000E+00  0.00000000E+00  0.00000000E+00
  0.00000000E+00  0.00000000E+00  0.00000000E+00
  0.00000000E+00  0.00000000E+00  0.00000000E+00
  0.00000000E+00  0.00000000E+00  0.00000000E+00
  0.00000000E+00  0.00000000E+00  0.00000000E+00
  0.00000000E+00  0.00000000E+00  0.00000000E+00
  0.00000000E+00  0.00000000E+00  0.00000000E+00
  0.00000000E+00  0.00000000E+00  0.00000000E+00
  0.00000000E+00  0.00000000E+00  0.00000000E+00
  0.00000000E+00  0.00000000E+00  0.00000000E+00
  0.00000000E+00  0.00000000E+00  0.00000000E+00
  0.00000000E+00  0.00000000E+00  0.00000000E+00
  0.00000000E+00  0.00000000E+00  0.00000000E+00
  0.00000000E+00  0.00000000E+00  0.00000000E+00
  0.00000000E+00  0.00000000E+00  0.00000000E+00
  0.00000000E+00  0.00000000E+00  0.00000000E+00
  0.00000000E+00  0.00000000E+00  0.00000000E+00
  0.00000000E+00  0.00000000E+00  0.00000000E+00
  0.00000000E+00  0.00000000E+00  0.00000000E+00
  0.00000000E+00  0.00000000E+00  0.00000000E+00
  0.00000000E+00  0.00000000E+00  0.00000000E+00
  0.00000000E+00  0.00000000E+00  0.00000000E+00
  0.00000000E+00  0.00000000E+00  0.00000000E+00
  0.00000000E+00  0.00000000E+00  0.00000000E+00
  0.00000000E+00  0.00000000E+00  0.00000000E+00
  0.00000000E+00  0.00000000E+00  0.00000000E+00
  0.00000000E+00  0.00000000E+00  0.00000000E+00
  0.00000000E+00  0.00000000E+00  0.00000000E+00
  0.00000000E+00  0.00000000E+00  0.00000000E+00
  0.00000000E+00  0.00000000E+00  0.00000000E+00
  0.00000000E+00  0.00000000E+00  0.00000000E+00
