Ni Cu Ni C  H  O                        
   1.00000000000000     
     7.4670000076000003    0.0000000000000000    0.0000000000000000
    -3.7335000038000001    6.4666116967000002    0.0000000000000000
     0.0000000000000000    0.0000000000000000   21.0967998504999983
   Ni   Cu   Ni   C    H    O 
    17     1    18     1     4     1
Selective dynamics
Direct
  0.0000000000000000  0.0000000000000000  0.0000000000000000   F   F   F
  0.9954501086176155 -0.0029593087148324  0.2884390989119234   T   T   T
  0.2228705079966324  0.1130566160707505  0.1936043654743279   T   T   T
  0.1111100018370763  0.2222200036741526  0.0963300019624427   F   F   F
  0.3333300054194055  0.0000000000000000  0.0000000000000000   F   F   F
  0.3347044869648933  0.0006160642796197  0.2880941090800099   T   T   T
  0.5557365961618020  0.1111459775738743  0.1925179736366716   T   T   T
  0.4444400072564818  0.2222200036741526  0.0963300019624427   F   F   F
  0.6666700243649828  0.0000000000000000  0.0000000000000000   F   F   F
  0.6658907573533007 -0.0001348765714387  0.2890832428272682   T   T   T
  0.8908744642330506  0.1145654220649301  0.1940371673508056   T   T   T
  0.7777799964712386  0.2222200036741526  0.0963300019624427   F   F   F
  0.0000000000742162  0.3333300054339077  0.0000000000000000   F   F   F
  0.9926365571903006  0.3238677136352734  0.2922010283248564   T   T   T
  0.2238018898017309  0.4433527209514501  0.1953638243120848   T   T   T
  0.1111100018189788  0.5555599928527215  0.0963300019624427   F   F   F
  0.3333300053596986  0.3333300054339077  0.0000000000000000   F   F   F
  0.3376846178802120  0.3277458647298281  0.3018468129351339   T   T   T
  0.5540409514389312  0.4440689920049963  0.1937383886597711   T   T   T
  0.4444400072383843  0.5555599928527215  0.0963300019624427   F   F   F
  0.6666700244391919  0.3333300054339077  0.0000000000000000   F   F   F
  0.6656188968771583  0.3317531901092486  0.2878970685158312   T   T   T
  0.8894603508682208  0.4450813915321148  0.1937257243774533   T   T   T
  0.7777799964531482  0.5555599928527215  0.0963300019624427   F   F   F
  0.9999999999795932  0.6666700244580994  0.0000000000000000   F   F   F
  0.9947701855051219  0.6717134476267165  0.2930161097045555   T   T   T
  0.2217531326505488  0.7773141684887543  0.1936623010490316   T   T   T
  0.1111100017393554  0.8888900279776095  0.0963300019624427   F   F   F
  0.3333300053989987  0.6666700244580994  0.0000000000000000   F   F   F
  0.3420618572531418  0.6730108268900117  0.2922373753942359   T   T   T
  0.5532449273356099  0.7768816839377347  0.1939216100881130   T   T   T
  0.4444400071587609  0.8888900279776095  0.0963300019624427   F   F   F
  0.6666700244784991  0.6666700244580994  0.0000000000000000   F   F   F
  0.6691684869908603  0.6706998341679700  0.2883270056498105   T   T   T
  0.8909011989234191  0.7767851186029409  0.1938558916263423   T   T   T
  0.7777799963735177  0.8888900279776095  0.0963300019624427   F   F   F
  0.3768647257279575  0.2849480390892202  0.3943488527727208   T   T   T
  0.4598595350664004  0.4419590775626687  0.4133977001345740   T   T   T
  0.2196099507980504  0.2009024187763080  0.4130951598022920   T   T   T
  0.4590689201451931  0.2034431146823033  0.4067105513274720   T   T   T
  0.1121055502213078  0.5532148269457057  0.4008522647699748   T   T   T
  0.1108043996285251  0.5547943194301157  0.3550079360369848   T   T   T
 
  0.00000000E+00  0.00000000E+00  0.00000000E+00
  0.00000000E+00  0.00000000E+00  0.00000000E+00
  0.00000000E+00  0.00000000E+00  0.00000000E+00
  0.00000000E+00  0.00000000E+00  0.00000000E+00
  0.00000000E+00  0.00000000E+00  0.00000000E+00
  0.00000000E+00  0.00000000E+00  0.00000000E+00
  0.00000000E+00  0.00000000E+00  0.00000000E+00
  0.00000000E+00  0.00000000E+00  0.00000000E+00
  0.00000000E+00  0.00000000E+00  0.00000000E+00
  0.00000000E+00  0.00000000E+00  0.00000000E+00
  0.00000000E+00  0.00000000E+00  0.00000000E+00
  0.00000000E+00  0.00000000E+00  0.00000000E+00
  0.00000000E+00  0.00000000E+00  0.00000000E+00
  0.00000000E+00  0.00000000E+00  0.00000000E+00
  0.00000000E+00  0.00000000E+00  0.00000000E+00
  0.00000000E+00  0.00000000E+00  0.00000000E+00
  0.00000000E+00  0.00000000E+00  0.00000000E+00
  0.00000000E+00  0.00000000E+00  0.00000000E+00
  0.00000000E+00  0.00000000E+00  0.00000000E+00
  0.00000000E+00  0.00000000E+00  0.00000000E+00
  0.00000000E+00  0.00000000E+00  0.00000000E+00
  0.00000000E+00  0.00000000E+00  0.00000000E+00
  0.00000000E+00  0.00000000E+00  0.00000000E+00
  0.00000000E+00  0.00000000E+00  0.00000000E+00
  0.00000000E+00  0.00000000E+00  0.00000000E+00
  0.00000000E+00  0.00000000E+00  0.00000000E+00
  0.00000000E+00  0.00000000E+00  0.00000000E+00
  0.00000000E+00  0.00000000E+00  0.00000000E+00
  0.00000000E+00  0.00000000E+00  0.00000000E+00
  0.00000000E+00  0.00000000E+00  0.00000000E+00
  0.00000000E+00  0.00000000E+00  0.00000000E+00
  0.00000000E+00  0.00000000E+00  0.00000000E+00
  0.00000000E+00  0.00000000E+00  0.00000000E+00
  0.00000000E+00  0.00000000E+00  0.00000000E+00
  0.00000000E+00  0.00000000E+00  0.00000000E+00
  0.00000000E+00  0.00000000E+00  0.00000000E+00
  0.00000000E+00  0.00000000E+00  0.00000000E+00
  0.00000000E+00  0.00000000E+00  0.00000000E+00
  0.00000000E+00  0.00000000E+00  0.00000000E+00
  0.00000000E+00  0.00000000E+00  0.00000000E+00
  0.00000000E+00  0.00000000E+00  0.00000000E+00
  0.00000000E+00  0.00000000E+00  0.00000000E+00
