Ni Cu Ni O                              
   1.00000000000000     
     7.4670000076000003    0.0000000000000000    0.0000000000000000
    -3.7335000038000001    6.4666116967000002    0.0000000000000000
     0.0000000000000000    0.0000000000000000   21.0967998504999983
   Ni   Cu   Ni   O 
    17     1    18     1
Selective dynamics
Direct
  0.0000000000000000  0.0000000000000000  0.0000000000000000   F   F   F
  0.9978644885573242  0.9989123635239867  0.2890135297093295   T   T   T
  0.2223718645541621  0.1122514923456344  0.1929600076361903   T   T   T
  0.1111100018370763  0.2222200036741526  0.0963300019624427   F   F   F
  0.3333300054194055  0.0000000000000000  0.0000000000000000   F   F   F
  0.3366625670626441  0.0058096666522661  0.2884548306347251   T   T   T
  0.5561406698594640  0.1117325969181874  0.1928551140340717   T   T   T
  0.4444400072564818  0.2222200036741526  0.0963300019624427   F   F   F
  0.6666700243649828  0.0000000000000000  0.0000000000000000   F   F   F
  0.6662750375422009  0.0009820963188740  0.2890486465502056   T   T   T
  0.8903578419996533  0.1134939227234798  0.1940030953747636   T   T   T
  0.7777799964712386  0.2222200036741526  0.0963300019624427   F   F   F
  0.0000000000742162  0.3333300054339077  0.0000000000000000   F   F   F
  0.9952135081948805  0.3289401123865751  0.2944139909525563   T   T   T
  0.2217996174949226  0.4453092668148819  0.1937943982652418   T   T   T
  0.1111100018189788  0.5555599928527215  0.0963300019624427   F   F   F
  0.3333300053596986  0.3333300054339077  0.0000000000000000   F   F   F
  0.3344467509360952  0.3328700374300954  0.2945232161399972   T   T   T
  0.5554534714612676  0.4455626309063940  0.1931931954346525   T   T   T
  0.4444400072383843  0.5555599928527215  0.0963300019624427   F   F   F
  0.6666700244391919  0.3333300054339077  0.0000000000000000   F   F   F
  0.6624777023040194  0.3314797673515708  0.2885889024216343   T   T   T
  0.8895673089721262  0.4456038456911374  0.1936552139359869   T   T   T
  0.7777799964531482  0.5555599928527215  0.0963300019624427   F   F   F
  0.9999999999795932  0.6666700244580994  0.0000000000000000   F   F   F
  0.9974557062183683  0.6709186972052368  0.2942839824655735   T   T   T
  0.2216048277213981  0.7777157147164713  0.1935734183328859   T   T   T
  0.1111100017393554  0.8888900279776095  0.0963300019624427   F   F   F
  0.3333300053989987  0.6666700244580994  0.0000000000000000   F   F   F
  0.3384940609625796  0.6726567957653842  0.2942084276469891   T   T   T
  0.5544382295634763  0.7776502483189195  0.1939457110387789   T   T   T
  0.4444400071587609  0.8888900279776095  0.0963300019624427   F   F   F
  0.6666700244784991  0.6666700244580994  0.0000000000000000   F   F   F
  0.6695796099623184  0.6708822168134794  0.2889800064081950   T   T   T
  0.8901474409037443  0.7779862716286265  0.1937961806095786   T   T   T
  0.7777799963735177  0.8888900279776095  0.0963300019624427   F   F   F
  0.1106850044636816  0.5568618780809792  0.3471306303516603   T   T   T
 
  0.00000000E+00  0.00000000E+00  0.00000000E+00
  0.00000000E+00  0.00000000E+00  0.00000000E+00
  0.00000000E+00  0.00000000E+00  0.00000000E+00
  0.00000000E+00  0.00000000E+00  0.00000000E+00
  0.00000000E+00  0.00000000E+00  0.00000000E+00
  0.00000000E+00  0.00000000E+00  0.00000000E+00
  0.00000000E+00  0.00000000E+00  0.00000000E+00
  0.00000000E+00  0.00000000E+00  0.00000000E+00
  0.00000000E+00  0.00000000E+00  0.00000000E+00
  0.00000000E+00  0.00000000E+00  0.00000000E+00
  0.00000000E+00  0.00000000E+00  0.00000000E+00
  0.00000000E+00  0.00000000E+00  0.00000000E+00
  0.00000000E+00  0.00000000E+00  0.00000000E+00
  0.00000000E+00  0.00000000E+00  0.00000000E+00
  0.00000000E+00  0.00000000E+00  0.00000000E+00
  0.00000000E+00  0.00000000E+00  0.00000000E+00
  0.00000000E+00  0.00000000E+00  0.00000000E+00
  0.00000000E+00  0.00000000E+00  0.00000000E+00
  0.00000000E+00  0.00000000E+00  0.00000000E+00
  0.00000000E+00  0.00000000E+00  0.00000000E+00
  0.00000000E+00  0.00000000E+00  0.00000000E+00
  0.00000000E+00  0.00000000E+00  0.00000000E+00
  0.00000000E+00  0.00000000E+00  0.00000000E+00
  0.00000000E+00  0.00000000E+00  0.00000000E+00
  0.00000000E+00  0.00000000E+00  0.00000000E+00
  0.00000000E+00  0.00000000E+00  0.00000000E+00
  0.00000000E+00  0.00000000E+00  0.00000000E+00
  0.00000000E+00  0.00000000E+00  0.00000000E+00
  0.00000000E+00  0.00000000E+00  0.00000000E+00
  0.00000000E+00  0.00000000E+00  0.00000000E+00
  0.00000000E+00  0.00000000E+00  0.00000000E+00
  0.00000000E+00  0.00000000E+00  0.00000000E+00
  0.00000000E+00  0.00000000E+00  0.00000000E+00
  0.00000000E+00  0.00000000E+00  0.00000000E+00
  0.00000000E+00  0.00000000E+00  0.00000000E+00
  0.00000000E+00  0.00000000E+00  0.00000000E+00
  0.00000000E+00  0.00000000E+00  0.00000000E+00
