Ni  Cu  Ni  C   H   O                   
   1.00000000000000     
     7.4670000076000003    0.0000000000000000    0.0000000000000000
    -3.7335000038000001    6.4666116967000002    0.0000000000000000
     0.0000000000000000    0.0000000000000000   21.0967998504999983
   Ni   Cu   Ni   C    H    O 
    17     1    18     1     4     1
Selective dynamics
Direct
  0.0000000000000000  0.0000000000000000  0.0000000000000000   F   F   F
  0.9979122200384973  0.9943069408804220  0.2889188820174643   T   T   T
  0.2240863315634822  0.1151186664115871  0.1946106062200144   T   T   T
  0.1111100018370763  0.2222200036741526  0.0963300019624427   F   F   F
  0.3333300054194055  0.0000000000000000  0.0000000000000000   F   F   F
  0.3364858524961768  0.0024682656821503  0.2876395674771225   T   T   T
  0.5562083557487424  0.1107874897570230  0.1924450775570132   T   T   T
  0.4444400072564818  0.2222200036741526  0.0963300019624427   F   F   F
  0.6666700243649828  0.0000000000000000  0.0000000000000000   F   F   F
  0.6674060420535728  0.9988152983563600  0.2883924051052419   T   T   T
  0.8897376553966392  0.1110650112245881  0.1931428763785793   T   T   T
  0.7777799964712386  0.2222200036741526  0.0963300019624427   F   F   F
  0.0000000000742162  0.3333300054339077  0.0000000000000000   F   F   F
  0.9901703977604134  0.3237552219133481  0.2893591392498157   T   T   T
  0.2230459017599166  0.4431971834501669  0.1939815291801258   T   T   T
  0.1111100018189788  0.5555599928527215  0.0963300019624427   F   F   F
  0.3333300053596986  0.3333300054339077  0.0000000000000000   F   F   F
  0.3360374552311441  0.3328520902148682  0.3062694270481766   T   T   T
  0.5523540110265494  0.4429917882314400  0.1946083718316206   T   T   T
  0.4444400072383843  0.5555599928527215  0.0963300019624427   F   F   F
  0.6666700244391919  0.3333300054339077  0.0000000000000000   F   F   F
  0.6650678895673190  0.3306803886088315  0.2875723951803953   T   T   T
  0.8893980813973014  0.4453103425180350  0.1931098915038013   T   T   T
  0.7777799964531482  0.5555599928527215  0.0963300019624427   F   F   F
  0.9999999999795932  0.6666700244580994  0.0000000000000000   F   F   F
  0.0020832473871412  0.6655112666089341  0.2955608612885459   T   T   T
  0.2217550023234879  0.7775812230127287  0.1930110650897208   T   T   T
  0.1111100017393554  0.8888900279776095  0.0963300019624427   F   F   F
  0.3333300053989987  0.6666700244580994  0.0000000000000000   F   F   F
  0.3422656514292274  0.6759578154439215  0.2893484778820192   T   T   T
  0.5554928231053506  0.7765425687570164  0.1932473645888579   T   T   T
  0.4444400071587609  0.8888900279776095  0.0963300019624427   F   F   F
  0.6666700244784991  0.6666700244580994  0.0000000000000000   F   F   F
  0.6733215918273832  0.6696364348227213  0.2889357143581991   T   T   T
  0.8916171197834484  0.7756046990128806  0.1944276703351623   T   T   T
  0.7777799963735177  0.8888900279776095  0.0963300019624427   F   F   F
  0.3203738148961407  0.3462646008809756  0.4103966773958503   T   T   T
  0.4201757923967259  0.4876791511306487  0.4368633251733584   T   T   T
  0.1788477568251976  0.2457003638265170  0.4367162234973287   T   T   T
  0.4051904841018356  0.2620933902857047  0.4060295885039973   T   T   T
  0.2187636916124082  0.4473180762032661  0.3759545897240156   T   T   T
  0.1351180209444575  0.5306789617025461  0.3529110560030260   T   T   T
 
  0.00000000E+00  0.00000000E+00  0.00000000E+00
  0.00000000E+00  0.00000000E+00  0.00000000E+00
  0.00000000E+00  0.00000000E+00  0.00000000E+00
  0.00000000E+00  0.00000000E+00  0.00000000E+00
  0.00000000E+00  0.00000000E+00  0.00000000E+00
  0.00000000E+00  0.00000000E+00  0.00000000E+00
  0.00000000E+00  0.00000000E+00  0.00000000E+00
  0.00000000E+00  0.00000000E+00  0.00000000E+00
  0.00000000E+00  0.00000000E+00  0.00000000E+00
  0.00000000E+00  0.00000000E+00  0.00000000E+00
  0.00000000E+00  0.00000000E+00  0.00000000E+00
  0.00000000E+00  0.00000000E+00  0.00000000E+00
  0.00000000E+00  0.00000000E+00  0.00000000E+00
  0.00000000E+00  0.00000000E+00  0.00000000E+00
  0.00000000E+00  0.00000000E+00  0.00000000E+00
  0.00000000E+00  0.00000000E+00  0.00000000E+00
  0.00000000E+00  0.00000000E+00  0.00000000E+00
  0.00000000E+00  0.00000000E+00  0.00000000E+00
  0.00000000E+00  0.00000000E+00  0.00000000E+00
  0.00000000E+00  0.00000000E+00  0.00000000E+00
  0.00000000E+00  0.00000000E+00  0.00000000E+00
  0.00000000E+00  0.00000000E+00  0.00000000E+00
  0.00000000E+00  0.00000000E+00  0.00000000E+00
  0.00000000E+00  0.00000000E+00  0.00000000E+00
  0.00000000E+00  0.00000000E+00  0.00000000E+00
  0.00000000E+00  0.00000000E+00  0.00000000E+00
  0.00000000E+00  0.00000000E+00  0.00000000E+00
  0.00000000E+00  0.00000000E+00  0.00000000E+00
  0.00000000E+00  0.00000000E+00  0.00000000E+00
  0.00000000E+00  0.00000000E+00  0.00000000E+00
  0.00000000E+00  0.00000000E+00  0.00000000E+00
  0.00000000E+00  0.00000000E+00  0.00000000E+00
  0.00000000E+00  0.00000000E+00  0.00000000E+00
  0.00000000E+00  0.00000000E+00  0.00000000E+00
  0.00000000E+00  0.00000000E+00  0.00000000E+00
  0.00000000E+00  0.00000000E+00  0.00000000E+00
  0.00000000E+00  0.00000000E+00  0.00000000E+00
  0.00000000E+00  0.00000000E+00  0.00000000E+00
  0.00000000E+00  0.00000000E+00  0.00000000E+00
  0.00000000E+00  0.00000000E+00  0.00000000E+00
  0.00000000E+00  0.00000000E+00  0.00000000E+00
  0.00000000E+00  0.00000000E+00  0.00000000E+00
