Pd  C  H  O                             
   1.00000000000000     
     6.8589000701999998    0.0000000000000000    0.0000000000000000
     0.0000000000000000    8.4004001617000004    0.0000000000000000
     0.0000000000000000    0.0000000000000000   26.3166007995999998
   Pd   C    H    O 
    45     1     4     1
Selective dynamics
Direct
  0.9566999999999979  0.0239600000000024  0.0000000000000000   F   F   F
  0.2900300000000016  0.0239600000000024  0.1228600000000029   F   F   F
  0.6214990587701469  0.0238155298972787  0.2473902964179039   T   T   T
  0.9581565309296421  0.0247920376086693  0.3747665900286674   T   T   T
  0.6233599999999981  0.0239600000000024  0.0614300000000014   F   F   F
  0.9566280821581775  0.0239366382107882  0.1854538561845392   T   T   T
  0.2874743570082620  0.0238311718029449  0.3105665599603393   T   T   T
  0.6260306062848676  0.0194561336809543  0.4330479015402728   T   T   T
  0.2900300000000016  0.1906200000000027  0.0307200000000023   F   F   F
  0.6233599999999981  0.1906200000000027  0.1535799999999981   F   F   F
  0.9557666550375608  0.1913031264814802  0.2789995880595773   T   T   T
  0.2868689537776088  0.1913658534922087  0.4035779490218205   T   T   T
  0.9566999999999979  0.1906200000000027  0.0921499999999966   F   F   F
  0.2899499114601958  0.1907906588297111  0.2166258903580009   T   T   T
  0.6244432913473118  0.1908331304529745  0.3399868680199234   T   T   T
  0.9566999999999979  0.3572899999999990  0.0000000000000000   F   F   F
  0.2900300000000016  0.3572899999999990  0.1228600000000029   F   F   F
  0.6218368606568979  0.3583152429554150  0.2474812073871100   T   T   T
  0.9583147867071755  0.3579640702996976  0.3746750743350600   T   T   T
  0.6233599999999981  0.3572899999999990  0.0614300000000014   F   F   F
  0.9564702161594782  0.3573242440511715  0.1854621349772097   T   T   T
  0.2877690045596970  0.3584613648634683  0.3104799206909683   T   T   T
  0.6257956832029925  0.3628558799981846  0.4330230536861472   T   T   T
  0.2900300000000016  0.5239600000000024  0.0307200000000023   F   F   F
  0.6233599999999981  0.5239600000000024  0.1535799999999981   F   F   F
  0.9529206136116827  0.5253628914762259  0.2797782749856666   T   T   T
  0.2846211460152383  0.5255537035410116  0.4051294462150608   T   T   T
  0.9566999999999979  0.5239600000000024  0.0921499999999966   F   F   F
  0.2882677633464617  0.5241831801776712  0.2170152032052606   T   T   T
  0.6219894577893301  0.5238503926911693  0.3431939750909864   T   T   T
  0.9566999999999979  0.6906200000000027  0.0000000000000000   F   F   F
  0.2900300000000016  0.6906200000000027  0.1228600000000029   F   F   F
  0.6192119708613125  0.6911926926115595  0.2488630946241124   T   T   T
  0.9527550027718734  0.6917211361002569  0.3762497435657542   T   T   T
  0.6233599999999981  0.6906200000000027  0.0614300000000014   F   F   F
  0.9551654408200547  0.6907013159562310  0.1859954013921557   T   T   T
  0.2855299233536414  0.6910215128552570  0.3112664234622008   T   T   T
  0.6172310773776306  0.6916678906428924  0.4375852322126563   T   T   T
  0.2900300000000016  0.8572899999999990  0.0307200000000023   F   F   F
  0.6233599999999981  0.8572899999999990  0.1535799999999981   F   F   F
  0.9527394383987429  0.8577294794642190  0.2797394541053418   T   T   T
  0.2844154338920729  0.8578638203077080  0.4050664636702347   T   T   T
  0.9566999999999979  0.8572899999999990  0.0921499999999966   F   F   F
  0.2881247601997282  0.8571368435538479  0.2169903392342354   T   T   T
  0.6215662453791579  0.8586228436154097  0.3431518190568739   T   T   T
  0.6112960135087658  0.6907939320646861  0.5155935406039568   T   T   T
  0.4831877684076930  0.6228421877163252  0.5272026942801745   T   T   T
  0.7471200198147286  0.6334770649626469  0.5272447140819503   T   T   T
  0.6034867843819469  0.8144880693273679  0.5281621807656531   T   T   T
  0.7856019923764378  0.1916372447661781  0.5047059539390335   T   T   T
  0.6519250443648568  0.1914162206773712  0.4924834424904018   T   T   T
 
  0.00000000E+00  0.00000000E+00  0.00000000E+00
  0.00000000E+00  0.00000000E+00  0.00000000E+00
  0.00000000E+00  0.00000000E+00  0.00000000E+00
  0.00000000E+00  0.00000000E+00  0.00000000E+00
  0.00000000E+00  0.00000000E+00  0.00000000E+00
  0.00000000E+00  0.00000000E+00  0.00000000E+00
  0.00000000E+00  0.00000000E+00  0.00000000E+00
  0.00000000E+00  0.00000000E+00  0.00000000E+00
  0.00000000E+00  0.00000000E+00  0.00000000E+00
  0.00000000E+00  0.00000000E+00  0.00000000E+00
  0.00000000E+00  0.00000000E+00  0.00000000E+00
  0.00000000E+00  0.00000000E+00  0.00000000E+00
  0.00000000E+00  0.00000000E+00  0.00000000E+00
  0.00000000E+00  0.00000000E+00  0.00000000E+00
  0.00000000E+00  0.00000000E+00  0.00000000E+00
  0.00000000E+00  0.00000000E+00  0.00000000E+00
  0.00000000E+00  0.00000000E+00  0.00000000E+00
  0.00000000E+00  0.00000000E+00  0.00000000E+00
  0.00000000E+00  0.00000000E+00  0.00000000E+00
  0.00000000E+00  0.00000000E+00  0.00000000E+00
  0.00000000E+00  0.00000000E+00  0.00000000E+00
  0.00000000E+00  0.00000000E+00  0.00000000E+00
  0.00000000E+00  0.00000000E+00  0.00000000E+00
  0.00000000E+00  0.00000000E+00  0.00000000E+00
  0.00000000E+00  0.00000000E+00  0.00000000E+00
  0.00000000E+00  0.00000000E+00  0.00000000E+00
  0.00000000E+00  0.00000000E+00  0.00000000E+00
  0.00000000E+00  0.00000000E+00  0.00000000E+00
  0.00000000E+00  0.00000000E+00  0.00000000E+00
  0.00000000E+00  0.00000000E+00  0.00000000E+00
  0.00000000E+00  0.00000000E+00  0.00000000E+00
  0.00000000E+00  0.00000000E+00  0.00000000E+00
  0.00000000E+00  0.00000000E+00  0.00000000E+00
  0.00000000E+00  0.00000000E+00  0.00000000E+00
  0.00000000E+00  0.00000000E+00  0.00000000E+00
  0.00000000E+00  0.00000000E+00  0.00000000E+00
  0.00000000E+00  0.00000000E+00  0.00000000E+00
  0.00000000E+00  0.00000000E+00  0.00000000E+00
  0.00000000E+00  0.00000000E+00  0.00000000E+00
  0.00000000E+00  0.00000000E+00  0.00000000E+00
  0.00000000E+00  0.00000000E+00  0.00000000E+00
  0.00000000E+00  0.00000000E+00  0.00000000E+00
  0.00000000E+00  0.00000000E+00  0.00000000E+00
  0.00000000E+00  0.00000000E+00  0.00000000E+00
  0.00000000E+00  0.00000000E+00  0.00000000E+00
  0.00000000E+00  0.00000000E+00  0.00000000E+00
  0.00000000E+00  0.00000000E+00  0.00000000E+00
  0.00000000E+00  0.00000000E+00  0.00000000E+00
  0.00000000E+00  0.00000000E+00  0.00000000E+00
  0.00000000E+00  0.00000000E+00  0.00000000E+00
  0.00000000E+00  0.00000000E+00  0.00000000E+00
