Pd  O                                   
   1.00000000000000     
     6.8589000701999998    0.0000000000000000    0.0000000000000000
     0.0000000000000000    8.4004001617000004    0.0000000000000000
     0.0000000000000000    0.0000000000000000   26.3166007995999998
   Pd   O 
    45     1
Selective dynamics
Direct
  0.9566999999999979  0.0239600000000024  0.0000000000000000   F   F   F
  0.2900300000000016  0.0239600000000024  0.1228600000000029   F   F   F
  0.6214744841606621  0.0246087166407344  0.2479260349647649   T   T   T
  0.9577587178851599  0.0238514545125552  0.3757003178194928   T   T   T
  0.6233599999999981  0.0239600000000024  0.0614300000000014   F   F   F
  0.9563819897070471  0.0242630229297084  0.1855329028415084   T   T   T
  0.2871897480404146  0.0242078016323240  0.3108270823073007   T   T   T
  0.6253195205539042  0.0193308698229378  0.4348223395075317   T   T   T
  0.2900300000000016  0.1906200000000027  0.0307200000000023   F   F   F
  0.6233599999999981  0.1906200000000027  0.1535799999999981   F   F   F
  0.9548370059350265  0.1915389941043414  0.2795444025037857   T   T   T
  0.2875175945195729  0.1917397880604726  0.4040730506518885   T   T   T
  0.9566999999999979  0.1906200000000027  0.0921499999999966   F   F   F
  0.2890537123153819  0.1912025888245683  0.2168368867071689   T   T   T
  0.6239748283155564  0.1916359479464733  0.3406970135033686   T   T   T
  0.9566999999999979  0.3572899999999990  0.0000000000000000   F   F   F
  0.2900300000000016  0.3572899999999990  0.1228600000000029   F   F   F
  0.6211084528669286  0.3587298410482007  0.2478544949347492   T   T   T
  0.9579312486438852  0.3584495868598833  0.3753202932587102   T   T   T
  0.6233599999999981  0.3572899999999990  0.0614300000000014   F   F   F
  0.9563348335178704  0.3578022326780711  0.1855171441152974   T   T   T
  0.2866835346104665  0.3581494796482689  0.3107396461628620   T   T   T
  0.6260547523268757  0.3663196428155009  0.4350272513748605   T   T   T
  0.2900300000000016  0.5239600000000024  0.0307200000000023   F   F   F
  0.6233599999999981  0.5239600000000024  0.1535799999999981   F   F   F
  0.9539451495073425  0.5255992922174252  0.2796059059129949   T   T   T
  0.2913078775406152  0.5249868946694020  0.4052955591121838   T   T   T
  0.9566999999999979  0.5239600000000024  0.0921499999999966   F   F   F
  0.2885587218757650  0.5246160527480113  0.2168151579435119   T   T   T
  0.6237957500706690  0.5242388420450604  0.3423193570893023   T   T   T
  0.9566999999999979  0.6906200000000027  0.0000000000000000   F   F   F
  0.2900300000000016  0.6906200000000027  0.1228600000000029   F   F   F
  0.6210916953939009  0.6919980047016302  0.2477323163484957   T   T   T
  0.9595800219039932  0.6908045852685294  0.3757759308932572   T   T   T
  0.6233599999999981  0.6906200000000027  0.0614300000000014   F   F   F
  0.9560984018754379  0.6911598920294806  0.1855511896097276   T   T   T
  0.2879093401982851  0.6911153408768386  0.3109578341987543   T   T   T
  0.6294891684212209  0.6928619720390332  0.4342107060376060   T   T   T
  0.2900300000000016  0.8572899999999990  0.0307200000000023   F   F   F
  0.6233599999999981  0.8572899999999990  0.1535799999999981   F   F   F
  0.9549082483935856  0.8581776989644664  0.2797949560246120   T   T   T
  0.2912464270583986  0.8582486332074623  0.4052844307182364   T   T   T
  0.9566999999999979  0.8572899999999990  0.0921499999999966   F   F   F
  0.2887006047077798  0.8579645412572033  0.2167804907401179   T   T   T
  0.6240398764089807  0.8586122394175262  0.3423344801158272   T   T   T
  0.6594640562618779  0.1926241225963472  0.4821174587623723   T   T   T
 
  0.00000000E+00  0.00000000E+00  0.00000000E+00
  0.00000000E+00  0.00000000E+00  0.00000000E+00
  0.00000000E+00  0.00000000E+00  0.00000000E+00
  0.00000000E+00  0.00000000E+00  0.00000000E+00
  0.00000000E+00  0.00000000E+00  0.00000000E+00
  0.00000000E+00  0.00000000E+00  0.00000000E+00
  0.00000000E+00  0.00000000E+00  0.00000000E+00
  0.00000000E+00  0.00000000E+00  0.00000000E+00
  0.00000000E+00  0.00000000E+00  0.00000000E+00
  0.00000000E+00  0.00000000E+00  0.00000000E+00
  0.00000000E+00  0.00000000E+00  0.00000000E+00
  0.00000000E+00  0.00000000E+00  0.00000000E+00
  0.00000000E+00  0.00000000E+00  0.00000000E+00
  0.00000000E+00  0.00000000E+00  0.00000000E+00
  0.00000000E+00  0.00000000E+00  0.00000000E+00
  0.00000000E+00  0.00000000E+00  0.00000000E+00
  0.00000000E+00  0.00000000E+00  0.00000000E+00
  0.00000000E+00  0.00000000E+00  0.00000000E+00
  0.00000000E+00  0.00000000E+00  0.00000000E+00
  0.00000000E+00  0.00000000E+00  0.00000000E+00
  0.00000000E+00  0.00000000E+00  0.00000000E+00
  0.00000000E+00  0.00000000E+00  0.00000000E+00
  0.00000000E+00  0.00000000E+00  0.00000000E+00
  0.00000000E+00  0.00000000E+00  0.00000000E+00
  0.00000000E+00  0.00000000E+00  0.00000000E+00
  0.00000000E+00  0.00000000E+00  0.00000000E+00
  0.00000000E+00  0.00000000E+00  0.00000000E+00
  0.00000000E+00  0.00000000E+00  0.00000000E+00
  0.00000000E+00  0.00000000E+00  0.00000000E+00
  0.00000000E+00  0.00000000E+00  0.00000000E+00
  0.00000000E+00  0.00000000E+00  0.00000000E+00
  0.00000000E+00  0.00000000E+00  0.00000000E+00
  0.00000000E+00  0.00000000E+00  0.00000000E+00
  0.00000000E+00  0.00000000E+00  0.00000000E+00
  0.00000000E+00  0.00000000E+00  0.00000000E+00
  0.00000000E+00  0.00000000E+00  0.00000000E+00
  0.00000000E+00  0.00000000E+00  0.00000000E+00
  0.00000000E+00  0.00000000E+00  0.00000000E+00
  0.00000000E+00  0.00000000E+00  0.00000000E+00
  0.00000000E+00  0.00000000E+00  0.00000000E+00
  0.00000000E+00  0.00000000E+00  0.00000000E+00
  0.00000000E+00  0.00000000E+00  0.00000000E+00
  0.00000000E+00  0.00000000E+00  0.00000000E+00
  0.00000000E+00  0.00000000E+00  0.00000000E+00
  0.00000000E+00  0.00000000E+00  0.00000000E+00
  0.00000000E+00  0.00000000E+00  0.00000000E+00
