Ag   W    Ag   O    C    H              
   1.00000000000000     
     8.8247003554999992    0.0000000000000000    0.0000000000000000
    -4.4123501777999996    7.6424146886999997    0.0000000000000000
     0.0000000000000000    0.0000000000000000   22.2052993773999994
   Ag   W    Ag   O    C    H 
    17     1    18     1     1     4
Selective dynamics
Direct
  0.0000000000000000  0.0000000000000000  0.0000000000000000   F   F   F
  0.9974110657485582  0.0033981406476684  0.3281509461392886   T   T   T
  0.2225595754637979  0.1126319409587566  0.2191476871035931   T   T   T
  0.1111101706199165  0.2222203412373176  0.1081602170355964   F   F   F
  0.3333302980839079  0.0000000000000000  0.0000000000000000   F   F   F
  0.3154200915797034  0.9798356023616677  0.3236470663086166   T   T   T
  0.5553518471698382  0.1113836443943086  0.2182686176675830   T   T   T
  0.4444404687038244  0.2222203412373176  0.1081602170355964   F   F   F
  0.6666696616314383  0.0000000000000000  0.0000000000000000   F   F   F
  0.6647514213710366  0.0019404861688415  0.3374545811179885   T   T   T
  0.8846740501724355  0.1103682585096024  0.2192990023343810   T   T   T
  0.7777798322513547  0.2222203412373176  0.1081602170355964   F   F   F
  0.0000000666032705  0.3333305118559764  0.0000000000000000   F   F   F
  0.0123047995973522  0.3336353893187791  0.3279307284373374   T   T   T
  0.2260848854577659  0.4406656975810961  0.2183028437316921   T   T   T
  0.1111103244804070  0.5555600125020490  0.1081602170355964   F   F   F
  0.3333304049718322  0.3333305118559764  0.0000000000000000   F   F   F
  0.3400266488474060  0.3266271331351476  0.3273520377481702   T   T   T
  0.5541188278256683  0.4442287075863334  0.2191481374465383   T   T   T
  0.4444394893813666  0.5555600125020490  0.1081602170355964   F   F   F
  0.6666697685193554  0.3333305118559764  0.0000000000000000   F   F   F
  0.6868850041482588  0.3513352924920525  0.3236236484752766   T   T   T
  0.8912792105773164  0.4449719281823548  0.2163046720679844   T   T   T
  0.7777799861118453  0.5555600125020490  0.1081602170355964   F   F   F
  0.0000002204637610  0.6666701831207078  0.0000000000000000   F   F   F
  0.9991160015466889  0.6676463143964710  0.3255682293280771   T   T   T
  0.2218191936855334  0.7754774166812624  0.2163145796128632   T   T   T
  0.1111104313683313  0.8888905243580254  0.1081602170355964   F   F   F
  0.3333305588323228  0.6666701831207078  0.0000000000000000   F   F   F
  0.3331280118106150  0.6543847990079001  0.3279415366681135   T   T   T
  0.5564141709814194  0.7820839673666953  0.2193075588504030   T   T   T
  0.4444407294522392  0.8888905243580254  0.1081602170355964   F   F   F
  0.6666699223798460  0.6666701831207078  0.0000000000000000   F   F   F
  0.6633110384554257  0.6692649127719648  0.3281725626008338   T   T   T
  0.8883438166935065  0.7784463736044600  0.2171391575520616   T   T   T
  0.7777800929997625  0.8888905243580254  0.1081602170355964   F   F   F
  0.5219098572283940  0.1449110058941869  0.3870179750310712   T   T   T
  0.3594308507708917  0.3067525246263187  0.4324409158731370   T   T   T
  0.2905920835652509  0.3755658541068030  0.4129698881399975   T   T   T
  0.2604368073732459  0.2012910922348397  0.4599167895207117   T   T   T
  0.4647983285654362  0.4057919029944088  0.4599897450784098   T   T   T
  0.4306874006560406  0.2358351481063892  0.4068884569597699   T   T   T
 
  0.00000000E+00  0.00000000E+00  0.00000000E+00
  0.00000000E+00  0.00000000E+00  0.00000000E+00
  0.00000000E+00  0.00000000E+00  0.00000000E+00
  0.00000000E+00  0.00000000E+00  0.00000000E+00
  0.00000000E+00  0.00000000E+00  0.00000000E+00
  0.00000000E+00  0.00000000E+00  0.00000000E+00
  0.00000000E+00  0.00000000E+00  0.00000000E+00
  0.00000000E+00  0.00000000E+00  0.00000000E+00
  0.00000000E+00  0.00000000E+00  0.00000000E+00
  0.00000000E+00  0.00000000E+00  0.00000000E+00
  0.00000000E+00  0.00000000E+00  0.00000000E+00
  0.00000000E+00  0.00000000E+00  0.00000000E+00
  0.00000000E+00  0.00000000E+00  0.00000000E+00
  0.00000000E+00  0.00000000E+00  0.00000000E+00
  0.00000000E+00  0.00000000E+00  0.00000000E+00
  0.00000000E+00  0.00000000E+00  0.00000000E+00
  0.00000000E+00  0.00000000E+00  0.00000000E+00
  0.00000000E+00  0.00000000E+00  0.00000000E+00
  0.00000000E+00  0.00000000E+00  0.00000000E+00
  0.00000000E+00  0.00000000E+00  0.00000000E+00
  0.00000000E+00  0.00000000E+00  0.00000000E+00
  0.00000000E+00  0.00000000E+00  0.00000000E+00
  0.00000000E+00  0.00000000E+00  0.00000000E+00
  0.00000000E+00  0.00000000E+00  0.00000000E+00
  0.00000000E+00  0.00000000E+00  0.00000000E+00
  0.00000000E+00  0.00000000E+00  0.00000000E+00
  0.00000000E+00  0.00000000E+00  0.00000000E+00
  0.00000000E+00  0.00000000E+00  0.00000000E+00
  0.00000000E+00  0.00000000E+00  0.00000000E+00
  0.00000000E+00  0.00000000E+00  0.00000000E+00
  0.00000000E+00  0.00000000E+00  0.00000000E+00
  0.00000000E+00  0.00000000E+00  0.00000000E+00
  0.00000000E+00  0.00000000E+00  0.00000000E+00
  0.00000000E+00  0.00000000E+00  0.00000000E+00
  0.00000000E+00  0.00000000E+00  0.00000000E+00
  0.00000000E+00  0.00000000E+00  0.00000000E+00
  0.00000000E+00  0.00000000E+00  0.00000000E+00
  0.00000000E+00  0.00000000E+00  0.00000000E+00
  0.00000000E+00  0.00000000E+00  0.00000000E+00
  0.00000000E+00  0.00000000E+00  0.00000000E+00
  0.00000000E+00  0.00000000E+00  0.00000000E+00
  0.00000000E+00  0.00000000E+00  0.00000000E+00
