Au Mo Au O                              
   1.00000000000000     
    12.5100002288999992    0.0000000000000000    0.0000000000000000
     0.0000000000000000    8.8458995818999995    0.0000000000000000
     0.0000000000000000    0.0000000000000000   19.4230003356999994
   Au   Mo   Au   O 
    17     1    18     1
Selective dynamics
Direct
     0.0000000000000000    0.0000000000000000    0.0759100019830612   F   F   F
     0.9969081328099256    0.9998677407248449    0.2225133620419805   T   T   T
     0.1641419331258586    0.1728818517333526    0.1621599053721131   T   T   T
     0.1666699946322368    0.1666699945381183    0.0000000000000000   F   F   F
     0.3333300054117316    0.0000000000000000    0.0759100019830612   F   F   F
     0.3263247657000598    0.0002487252187700    0.2217474190206218   T   T   T
     0.4924346460841830    0.1733155968110190    0.1662295518087278   T   T   T
     0.4999999999640323    0.1666699945381183    0.0000000000000000   F   F   F
     0.6666700244124115    0.0000000000000000    0.0759100019830612   F   F   F
     0.6621136854425587    0.9999028273748820    0.2215618896641762   T   T   T
     0.8304809403122978    0.1651877303016416    0.1572194774336644   T   T   T
     0.8333299756395505    0.1666699945381183    0.0000000000000000   F   F   F
     0.0000000000000000    0.3333300053544903    0.0759100019830612   F   F   F
     0.9912684466173324    0.3333434069526039    0.2236553843832786   T   T   T
     0.1641411590243347    0.4938011141691323    0.1621590152567398   T   T   T
     0.1666699946322368    0.5000000000056559    0.0000000000000000   F   F   F
     0.3333300054117316    0.3333300053544903    0.0759100019830612   F   F   F
     0.3258034177558672    0.3333370781679460    0.2266240745327841   T   T   T
     0.4924342974095955    0.4933570195933130    0.1662268411371320   T   T   T
     0.4999999999640323    0.5000000000056559    0.0000000000000000   F   F   F
     0.6666700244124115    0.3333300053544903    0.0759100019830612   F   F   F
     0.6672813821977078    0.3333338798847693    0.2225488404297611   T   T   T
     0.8304708918151069    0.5014675794183368    0.1572208549289127   T   T   T
     0.8333299756395505    0.5000000000056559    0.0000000000000000   F   F   F
     0.0000000000000000    0.6666700243881039    0.0759100019830612   F   F   F
     0.9968892579750728    0.6668119174715736    0.2225093291411221   T   T   T
     0.1623631867579659    0.8333356825855534    0.1562032305030570   T   T   T
     0.1666699946322368    0.8333299756288497    0.0000000000000000   F   F   F
     0.3333300054117316    0.6666700243881039    0.0759100019830612   F   F   F
     0.3263291645379904    0.6664201380404896    0.2217478080890098   T   T   T
     0.4951367719211086    0.8333416970417883    0.1582692810338479   T   T   T
     0.4999999999640323    0.8333299756288497    0.0000000000000000   F   F   F
     0.6666700244124115    0.6666700243881039    0.0759100019830612   F   F   F
     0.6621093760382682    0.6667695136203059    0.2215615843771946   T   T   T
     0.8305863185710827    0.8333374161638958    0.1584191702482310   T   T   T
     0.8333299756395505    0.8333299756288497    0.0000000000000000   F   F   F
     0.3226897003033729    0.3333316468915738    0.3126184608936601   T   T   T
 
  0.00000000E+00  0.00000000E+00  0.00000000E+00
  0.00000000E+00  0.00000000E+00  0.00000000E+00
  0.00000000E+00  0.00000000E+00  0.00000000E+00
  0.00000000E+00  0.00000000E+00  0.00000000E+00
  0.00000000E+00  0.00000000E+00  0.00000000E+00
  0.00000000E+00  0.00000000E+00  0.00000000E+00
  0.00000000E+00  0.00000000E+00  0.00000000E+00
  0.00000000E+00  0.00000000E+00  0.00000000E+00
  0.00000000E+00  0.00000000E+00  0.00000000E+00
  0.00000000E+00  0.00000000E+00  0.00000000E+00
  0.00000000E+00  0.00000000E+00  0.00000000E+00
  0.00000000E+00  0.00000000E+00  0.00000000E+00
  0.00000000E+00  0.00000000E+00  0.00000000E+00
  0.00000000E+00  0.00000000E+00  0.00000000E+00
  0.00000000E+00  0.00000000E+00  0.00000000E+00
  0.00000000E+00  0.00000000E+00  0.00000000E+00
  0.00000000E+00  0.00000000E+00  0.00000000E+00
  0.00000000E+00  0.00000000E+00  0.00000000E+00
  0.00000000E+00  0.00000000E+00  0.00000000E+00
  0.00000000E+00  0.00000000E+00  0.00000000E+00
  0.00000000E+00  0.00000000E+00  0.00000000E+00
  0.00000000E+00  0.00000000E+00  0.00000000E+00
  0.00000000E+00  0.00000000E+00  0.00000000E+00
  0.00000000E+00  0.00000000E+00  0.00000000E+00
  0.00000000E+00  0.00000000E+00  0.00000000E+00
  0.00000000E+00  0.00000000E+00  0.00000000E+00
  0.00000000E+00  0.00000000E+00  0.00000000E+00
  0.00000000E+00  0.00000000E+00  0.00000000E+00
  0.00000000E+00  0.00000000E+00  0.00000000E+00
  0.00000000E+00  0.00000000E+00  0.00000000E+00
  0.00000000E+00  0.00000000E+00  0.00000000E+00
  0.00000000E+00  0.00000000E+00  0.00000000E+00
  0.00000000E+00  0.00000000E+00  0.00000000E+00
  0.00000000E+00  0.00000000E+00  0.00000000E+00
  0.00000000E+00  0.00000000E+00  0.00000000E+00
  0.00000000E+00  0.00000000E+00  0.00000000E+00
  0.00000000E+00  0.00000000E+00  0.00000000E+00
