Pt  C  H  O                             
   1.00000000000000     
    11.9399995804000003    0.0000000000000000    0.0000000000000000
     0.0000000000000000    8.4428997040000002    0.0000000000000000
     0.0000000000000000    0.0000000000000000   19.2213993073000005
   Pt   C    H    O 
    36     1     4     1
Selective dynamics
Direct
  0.0003293852871455 -0.0009727878406831  0.2201534352659617   T   T   T
  0.1619326819639384  0.1665232518266017  0.1489890777538572   T   T   T
  0.1666699945506451  0.1666699945912313  0.0000000000000000   F   F   F
  0.0000000000000000  0.0000000000000000  0.0732100009735248   F   F   F
  0.3303544568119398  0.0032849227625169  0.2185693034746362   T   T   T
  0.5039025366019357  0.1665077665221935  0.1490898601493425   T   T   T
  0.4999999999832525  0.1666699945912313  0.0000000000000000   F   F   F
  0.3333300054326003  0.0000000000000000  0.0732100009735248   F   F   F
  0.6668830104640023 -0.0004272775458566  0.2200349795260686   T   T   T
  0.8335749034703248  0.1664700435293065  0.1526104711129667   T   T   T
  0.8333299756001082  0.1666699945912313  0.0000000000000000   F   F   F
  0.6666700244333938  0.0000000000000000  0.0732100009735248   F   F   F
  0.0003958222167266  0.3339349595559110  0.2201848908813469   T   T   T
  0.1675554143890114  0.5002659983607850  0.1514733329210108   T   T   T
  0.1666699945506451  0.5000000000000000  0.0000000000000000   F   F   F
  0.0000000000000000  0.3333300054087687  0.0732100009735248   F   F   F
  0.3303361475466883  0.3292142831045000  0.2185596138869807   T   T   T
  0.5009358428480332  0.5005271016207065  0.1519037324543195   T   T   T
  0.4999999999832525  0.5000000000000000  0.0000000000000000   F   F   F
  0.3333300054326003  0.3333300054087687  0.0732100009735248   F   F   F
  0.6668059045222986  0.3331694826748344  0.2200325435902622   T   T   T
  0.8335749682055129  0.4997348391937877  0.1518637816637606   T   T   T
  0.8333299756001082  0.5000000000000000  0.0000000000000000   F   F   F
  0.6666700244333938  0.3333300054087687  0.0732100009735248   F   F   F
  0.0008734148628939  0.6664216767095241  0.2190362761178779   T   T   T
  0.1676328654034930  0.8327655965839583  0.1515141121816598   T   T   T
  0.1666699945506451  0.8333299755611989  0.0000000000000000   F   F   F
  0.0000000000000000  0.6666700244388011  0.0732100009735248   F   F   F
  0.3329940131138689  0.6665751587940938  0.2213663981600958   T   T   T
  0.5008924240943503  0.8324794775761147  0.1520094035194254   T   T   T
  0.4999999999832525  0.8333299755611989  0.0000000000000000   F   F   F
  0.3333300054326003  0.6666700244388011  0.0732100009735248   F   F   F
  0.6674016036306475  0.6663362914170307  0.2197647411293363   T   T   T
  0.8336177773964670  0.8332360580625220  0.1518589877114105   T   T   T
  0.8333299756001082  0.8333299755611989  0.0000000000000000   F   F   F
  0.6666700244333938  0.6666700244388011  0.0732100009735248   F   F   F
  0.3344277336719166  0.6613426407691075  0.3286931004750908   T   T   T
  0.4110854820480369  0.6006757575960152  0.3446170413338752   T   T   T
  0.2602914988569506  0.5960845674267616  0.3457266648498130   T   T   T
  0.4385789169396360  0.1662152971843244  0.3139787365529894   T   T   T
  0.3328977572633999  0.7830120249439927  0.3479559966084331   T   T   T
  0.3586772804749649  0.1664876213434267  0.3037698609078064   T   T   T
 
  0.00000000E+00  0.00000000E+00  0.00000000E+00
  0.00000000E+00  0.00000000E+00  0.00000000E+00
  0.00000000E+00  0.00000000E+00  0.00000000E+00
  0.00000000E+00  0.00000000E+00  0.00000000E+00
  0.00000000E+00  0.00000000E+00  0.00000000E+00
  0.00000000E+00  0.00000000E+00  0.00000000E+00
  0.00000000E+00  0.00000000E+00  0.00000000E+00
  0.00000000E+00  0.00000000E+00  0.00000000E+00
  0.00000000E+00  0.00000000E+00  0.00000000E+00
  0.00000000E+00  0.00000000E+00  0.00000000E+00
  0.00000000E+00  0.00000000E+00  0.00000000E+00
  0.00000000E+00  0.00000000E+00  0.00000000E+00
  0.00000000E+00  0.00000000E+00  0.00000000E+00
  0.00000000E+00  0.00000000E+00  0.00000000E+00
  0.00000000E+00  0.00000000E+00  0.00000000E+00
  0.00000000E+00  0.00000000E+00  0.00000000E+00
  0.00000000E+00  0.00000000E+00  0.00000000E+00
  0.00000000E+00  0.00000000E+00  0.00000000E+00
  0.00000000E+00  0.00000000E+00  0.00000000E+00
  0.00000000E+00  0.00000000E+00  0.00000000E+00
  0.00000000E+00  0.00000000E+00  0.00000000E+00
  0.00000000E+00  0.00000000E+00  0.00000000E+00
  0.00000000E+00  0.00000000E+00  0.00000000E+00
  0.00000000E+00  0.00000000E+00  0.00000000E+00
  0.00000000E+00  0.00000000E+00  0.00000000E+00
  0.00000000E+00  0.00000000E+00  0.00000000E+00
  0.00000000E+00  0.00000000E+00  0.00000000E+00
  0.00000000E+00  0.00000000E+00  0.00000000E+00
  0.00000000E+00  0.00000000E+00  0.00000000E+00
  0.00000000E+00  0.00000000E+00  0.00000000E+00
  0.00000000E+00  0.00000000E+00  0.00000000E+00
  0.00000000E+00  0.00000000E+00  0.00000000E+00
  0.00000000E+00  0.00000000E+00  0.00000000E+00
  0.00000000E+00  0.00000000E+00  0.00000000E+00
  0.00000000E+00  0.00000000E+00  0.00000000E+00
  0.00000000E+00  0.00000000E+00  0.00000000E+00
  0.00000000E+00  0.00000000E+00  0.00000000E+00
  0.00000000E+00  0.00000000E+00  0.00000000E+00
  0.00000000E+00  0.00000000E+00  0.00000000E+00
  0.00000000E+00  0.00000000E+00  0.00000000E+00
  0.00000000E+00  0.00000000E+00  0.00000000E+00
  0.00000000E+00  0.00000000E+00  0.00000000E+00
