Pt  C  H  O                             
   1.00000000000000     
    11.9399995804000003    0.0000000000000000    0.0000000000000000
     0.0000000000000000    8.4428997040000002    0.0000000000000000
     0.0000000000000000    0.0000000000000000   19.2213993073000005
   Pt   C    H    O 
    36     1     4     1
Selective dynamics
Direct
  0.9994070740384347  0.0002062612659570  0.2198563352429192   T   T   T
  0.1644786362440927  0.1668748746505501  0.1493356359215611   T   T   T
  0.1666699945506451  0.1666699945912313  0.0000000000000000   F   F   F
  0.0000000000000000  0.0000000000000000  0.0732100009735248   F   F   F
  0.3333331694027762 -0.0030728307696502  0.2234007142143886   T   T   T
  0.5022057261409311  0.1668339916929362  0.1493186662617463   T   T   T
  0.4999999999832525  0.1666699945912313  0.0000000000000000   F   F   F
  0.3333300054326003  0.0000000000000000  0.0732100009735248   F   F   F
  0.6672085899274417  0.0001773370629395  0.2198558615488788   T   T   T
  0.8332860754103425  0.1668602684870798  0.1518769326053817   T   T   T
  0.8333299756001082  0.1666699945912313  0.0000000000000000   F   F   F
  0.6666700244333938  0.0000000000000000  0.0732100009735248   F   F   F
 -0.0005648005937900  0.3336607246798149  0.2198603413011556   T   T   T
  0.1675764221827002  0.4994670520126885  0.1520869954955566   T   T   T
  0.1666699945506451  0.5000000000000000  0.0000000000000000   F   F   F
  0.0000000000000000  0.3333300054087687  0.0732100009735248   F   F   F
  0.3333554315138134  0.3374248450768350  0.2233134494372114   T   T   T
  0.4991228276484707  0.4994656491821549  0.1520779657692922   T   T   T
  0.4999999999832525  0.5000000000000000  0.0000000000000000   F   F   F
  0.3333300054326003  0.3333300054087687  0.0732100009735248   F   F   F
  0.6671672559722415  0.3336584050255880  0.2198661181618085   T   T   T
  0.8332796109135804  0.5007037238599258  0.1518928009276429   T   T   T
  0.8333299756001082  0.5000000000000000  0.0000000000000000   F   F   F
  0.6666700244333938  0.3333300054087687  0.0732100009735248   F   F   F
  0.0013016287438793  0.6669694667930590  0.2193866274730350   T   T   T
  0.1675915697123239  0.8342365909641535  0.1521050575386630   T   T   T
  0.1666699945506451  0.8333299755611989  0.0000000000000000   F   F   F
  0.0000000000000000  0.6666700244388011  0.0732100009735248   F   F   F
  0.3333648461403928  0.6670985561540470  0.2202566970073330   T   T   T
  0.4991001874242868  0.8342216407460600  0.1520923489403398   T   T   T
  0.4999999999832525  0.8333299755611989  0.0000000000000000   F   F   F
  0.3333300054326003  0.6666700244388011  0.0732100009735248   F   F   F
  0.6652997189374268  0.6669630551669740  0.2193861372791603   T   T   T
  0.8332857821329657  0.8329165668904690  0.1519216156178717   T   T   T
  0.8333299756001082  0.8333299755611989  0.0000000000000000   F   F   F
  0.6666700244333938  0.6666700244388011  0.0732100009735248   F   F   F
  0.3331368498714887  0.6636393092830265  0.4062910138055371   T   T   T
  0.4077960621151168  0.6560964076855609  0.4388287729087980   T   T   T
  0.2586326150839951  0.6731962361943604  0.4388710983576516   T   T   T
  0.3270306475802434  0.5571878485046162  0.3742768995784695   T   T   T
  0.3390910385947487  0.7684745629669547  0.3732067889255524   T   T   T
  0.3333748450514425  0.1672886083356906  0.2916759003060216   T   T   T
 
  0.00000000E+00  0.00000000E+00  0.00000000E+00
  0.00000000E+00  0.00000000E+00  0.00000000E+00
  0.00000000E+00  0.00000000E+00  0.00000000E+00
  0.00000000E+00  0.00000000E+00  0.00000000E+00
  0.00000000E+00  0.00000000E+00  0.00000000E+00
  0.00000000E+00  0.00000000E+00  0.00000000E+00
  0.00000000E+00  0.00000000E+00  0.00000000E+00
  0.00000000E+00  0.00000000E+00  0.00000000E+00
  0.00000000E+00  0.00000000E+00  0.00000000E+00
  0.00000000E+00  0.00000000E+00  0.00000000E+00
  0.00000000E+00  0.00000000E+00  0.00000000E+00
  0.00000000E+00  0.00000000E+00  0.00000000E+00
  0.00000000E+00  0.00000000E+00  0.00000000E+00
  0.00000000E+00  0.00000000E+00  0.00000000E+00
  0.00000000E+00  0.00000000E+00  0.00000000E+00
  0.00000000E+00  0.00000000E+00  0.00000000E+00
  0.00000000E+00  0.00000000E+00  0.00000000E+00
  0.00000000E+00  0.00000000E+00  0.00000000E+00
  0.00000000E+00  0.00000000E+00  0.00000000E+00
  0.00000000E+00  0.00000000E+00  0.00000000E+00
  0.00000000E+00  0.00000000E+00  0.00000000E+00
  0.00000000E+00  0.00000000E+00  0.00000000E+00
  0.00000000E+00  0.00000000E+00  0.00000000E+00
  0.00000000E+00  0.00000000E+00  0.00000000E+00
  0.00000000E+00  0.00000000E+00  0.00000000E+00
  0.00000000E+00  0.00000000E+00  0.00000000E+00
  0.00000000E+00  0.00000000E+00  0.00000000E+00
  0.00000000E+00  0.00000000E+00  0.00000000E+00
  0.00000000E+00  0.00000000E+00  0.00000000E+00
  0.00000000E+00  0.00000000E+00  0.00000000E+00
  0.00000000E+00  0.00000000E+00  0.00000000E+00
  0.00000000E+00  0.00000000E+00  0.00000000E+00
  0.00000000E+00  0.00000000E+00  0.00000000E+00
  0.00000000E+00  0.00000000E+00  0.00000000E+00
  0.00000000E+00  0.00000000E+00  0.00000000E+00
  0.00000000E+00  0.00000000E+00  0.00000000E+00
  0.00000000E+00  0.00000000E+00  0.00000000E+00
  0.00000000E+00  0.00000000E+00  0.00000000E+00
  0.00000000E+00  0.00000000E+00  0.00000000E+00
  0.00000000E+00  0.00000000E+00  0.00000000E+00
  0.00000000E+00  0.00000000E+00  0.00000000E+00
  0.00000000E+00  0.00000000E+00  0.00000000E+00
