Pt   C    H    O                        
   1.00000000000000     
    11.9399995804000003    0.0000000000000000    0.0000000000000000
     0.0000000000000000    8.4428997040000002    0.0000000000000000
     0.0000000000000000    0.0000000000000000   19.2213993073000005
   Pt   C    H    O 
    36     1     4     1
Selective dynamics
Direct
  0.0001720669261927  0.9993769861929261  0.2201071935406283   T   T   T
  0.1657678290188421  0.1655055890188689  0.1512286067362708   T   T   T
  0.1666699945506451  0.1666699945912314  0.0000000000000000   F   F   F
  0.0000000000000000  0.0000000000000000  0.0732100009735248   F   F   F
  0.3332601016746593  0.9940301539854804  0.2179261425289219   T   T   T
  0.5008936069233939  0.1655270197907365  0.1512236240024984   T   T   T
  0.4999999999832525  0.1666699945912314  0.0000000000000000   F   F   F
  0.3333300054326003  0.0000000000000000  0.0732100009735248   F   F   F
  0.6666032320311438  0.9994047611462429  0.2201607633265524   T   T   T
  0.8333283861465067  0.1655532946777545  0.1519210392240682   T   T   T
  0.8333299756001082  0.1666699945912314  0.0000000000000000   F   F   F
  0.6666700244333938  0.0000000000000000  0.0732100009735248   F   F   F
  0.9987577264445534  0.3324380699628984  0.2198907339651524   T   T   T
  0.1647361514430153  0.4992588692537952  0.1511667291736523   T   T   T
  0.1666699945506451  0.5000000000000000  0.0000000000000000   F   F   F
  0.0000000000000000  0.3333300054087687  0.0732100009735248   F   F   F
  0.3333544777453912  0.3270976987814768  0.2177793694375789   T   T   T
  0.5021506443955439  0.4991497176939793  0.1511003467759955   T   T   T
  0.4999999999832525  0.5000000000000000  0.0000000000000000   F   F   F
  0.3333300054326003  0.3333300054087687  0.0732100009735248   F   F   F
  0.6679725383597843  0.3323878099911140  0.2198949856154545   T   T   T
  0.8333533864698185  0.4997351414170655  0.1513530061358468   T   T   T
  0.8333299756001082  0.5000000000000000  0.0000000000000000   F   F   F
  0.6666700244333938  0.3333300054087687  0.0732100009735248   F   F   F
  0.9998121137018184  0.6652759200836157  0.2201591149313922   T   T   T
  0.1638299591941486  0.8330628979322121  0.1507075551296504   T   T   T
  0.1666699945506451  0.8333299755611990  0.0000000000000000   F   F   F
  0.0000000000000000  0.6666700244388012  0.0732100009735248   F   F   F
  0.3335162913357091  0.6680839731051754  0.2183450421105513   T   T   T
  0.5029580108842432  0.8331270425070676  0.1506531426211955   T   T   T
  0.4999999999832525  0.8333299755611990  0.0000000000000000   F   F   F
  0.3333300054326003  0.6666700244388012  0.0732100009735248   F   F   F
  0.6669205159632889  0.6652405890728458  0.2201296753284878   T   T   T
  0.8333497200779139  0.8331119160463814  0.1523729271108788   T   T   T
  0.8333299756001082  0.8333299755611990  0.0000000000000000   F   F   F
  0.6666700244333938  0.6666700244388012  0.0732100009735248   F   F   F
  0.3375365260010766  0.6783067904756406  0.3409292695230899   T   T   T
  0.4139322152946111  0.6532953287044552  0.3702742949403258   T   T   T
  0.2617566667344217  0.6577076277793551  0.3714873550585747   T   T   T
  0.3356168392764062  0.5436520282760279  0.3109973654420141   T   T   T
  0.3392837228440854  0.8042602501134680  0.3269710606289267   T   T   T
  0.3343939627305604  0.3702674023376327  0.3130406963762892   T   T   T
 
 -0.16294674E-01 -0.46174355E-02 -0.10651173E-01
 -0.15802194E-01 -0.64563746E-02  0.20060271E-02
  0.00000000E+00  0.00000000E+00  0.00000000E+00
  0.00000000E+00  0.00000000E+00  0.00000000E+00
 -0.53784842E-02 -0.45350478E-02  0.22843874E-01
  0.14004280E-01 -0.53864366E-02  0.26774129E-02
  0.00000000E+00  0.00000000E+00  0.00000000E+00
  0.00000000E+00  0.00000000E+00  0.00000000E+00
  0.14865288E-01 -0.61937125E-02 -0.97601771E-02
 -0.28490677E-03 -0.47414927E-02 -0.26222672E-02
  0.00000000E+00  0.00000000E+00  0.00000000E+00
  0.00000000E+00  0.00000000E+00  0.00000000E+00
 -0.10251976E-01 -0.58365604E-02 -0.62743258E-02
 -0.75592413E-03  0.41614981E-02  0.66730020E-02
  0.00000000E+00  0.00000000E+00  0.00000000E+00
  0.00000000E+00  0.00000000E+00  0.00000000E+00
  0.19830788E-03  0.99988051E-02 -0.24035605E-01
  0.32993983E-02  0.53963058E-02  0.86488120E-02
  0.00000000E+00  0.00000000E+00  0.00000000E+00
  0.00000000E+00  0.00000000E+00  0.00000000E+00
  0.74649770E-02 -0.38736801E-02 -0.64506745E-02
  0.11217828E-02 -0.40593295E-02 -0.60426898E-02
  0.00000000E+00  0.00000000E+00  0.00000000E+00
  0.00000000E+00  0.00000000E+00  0.00000000E+00
 -0.19401998E-01 -0.12049793E-02 -0.55529361E-02
  0.19593914E-02 -0.70309717E-02  0.73621121E-02
  0.00000000E+00  0.00000000E+00  0.00000000E+00
  0.00000000E+00  0.00000000E+00  0.00000000E+00
  0.25949915E-02 -0.19769560E-01  0.18056266E+00
 -0.42078580E-02 -0.10951688E-01  0.10143518E-01
  0.00000000E+00  0.00000000E+00  0.00000000E+00
  0.00000000E+00  0.00000000E+00  0.00000000E+00
  0.19698831E-01 -0.13955478E-02 -0.46288101E-02
 -0.26065192E-02  0.38335362E-03 -0.18755854E-02
  0.00000000E+00  0.00000000E+00  0.00000000E+00
  0.00000000E+00  0.00000000E+00  0.00000000E+00
 -0.20234862E-02  0.18159660E+00 -0.11530729E+00
 -0.20325553E-01 -0.20776759E-01 -0.12058052E+00
  0.11868967E-01 -0.20345496E-01 -0.11785396E+00
 -0.48242056E-02 -0.73905363E+00  0.38166704E-01
  0.42204551E-02  0.17515458E+00  0.10828192E+00
  0.19119519E-01  0.53826060E+00  0.80245110E-01
