Au Ru Au O  C  H                        
   1.00000000000000     
     8.8458995818999995    0.0000000000000000    0.0000000000000000
     0.0000000000000000    8.8458995818999995    0.0000000000000000
     0.0000000000000000    0.0000000000000000   21.2549991608000006
   Au   Ru   Au   O    C    H 
    17     1    18     1     1     4
Selective dynamics
Direct
  0.0000000000000000  0.0000000000000000  0.0980900004383471   F   F   F
  0.9937193150981471  0.9994166817717479  0.2972211337609785   T   T   T
  0.1666699945381183  0.1666699945381183  0.0000000000000000   F   F   F
  0.1684697224515040  0.1681234780645191  0.1994789622478209   T   T   T
  0.3333300053544903  0.0000000000000000  0.0980900004383471   F   F   F
  0.3113032820680806  0.0173037048648058  0.3036284012668394   T   T   T
  0.5000000000056559  0.1666699945381183  0.0000000000000000   F   F   F
  0.4988620234839568  0.1670279048147230  0.2002055215610829   T   T   T
  0.6666700243881039  0.0000000000000000  0.0980900004383471   F   F   F
  0.6766069049795855  0.9946475830762634  0.3049306938944848   T   T   T
  0.8333299756288497  0.1666699945381183  0.0000000000000000   F   F   F
  0.8293923230125901  0.1653333106658132  0.2000850340023916   T   T   T
  0.0000000000000000  0.3333300053544903  0.0980900004383471   F   F   F
  0.0061185433985552  0.3332999346693969  0.2998756221534731   T   T   T
  0.1666699945381183  0.5000000000056559  0.0000000000000000   F   F   F
  0.1670375370457429  0.4998047161346922  0.1977797480282727   T   T   T
  0.3333300053544903  0.3333300053544903  0.0980900004383471   F   F   F
  0.3350218571558562  0.3423040952894024  0.2911765520477198   T   T   T
  0.5000000000056559  0.5000000000056559  0.0000000000000000   F   F   F
  0.5001977193729304  0.5006090683905515  0.1976212039814883   T   T   T
  0.6666700243881039  0.3333300053544903  0.0980900004383471   F   F   F
  0.6627295345369609  0.3346780201257441  0.2998300911609612   T   T   T
  0.8333299756288497  0.5000000000056559  0.0000000000000000   F   F   F
  0.8344285034581788  0.4982982306812677  0.1987450839388454   T   T   T
  0.0000000000000000  0.6666700243881039  0.0980900004383471   F   F   F
  0.9986238564290693  0.6663967307067103  0.2984269090800290   T   T   T
  0.1666699945381183  0.8333299756288497  0.0000000000000000   F   F   F
  0.1682577938513359  0.8351514766534710  0.1994444256759128   T   T   T
  0.3333300053544903  0.6666700243881039  0.0980900004383471   F   F   F
  0.3319607623178871  0.6597537623204143  0.2992666844432729   T   T   T
  0.5000000000056559  0.8333299756288497  0.0000000000000000   F   F   F
  0.4987115245875515  0.8362381802301458  0.1993021417879694   T   T   T
  0.6666700243881039  0.6666700243881039  0.0980900004383471   F   F   F
  0.6670296734672370  0.6601502019830758  0.2985956242721313   T   T   T
  0.8333299756288497  0.8333299756288497  0.0000000000000000   F   F   F
  0.8300342144657155  0.8332889607504346  0.1988986949075653   T   T   T
  0.4873590300256340  0.9742086914163677  0.3637839509121619   T   T   T
  0.3457612698564841  0.3315880329635756  0.4265230750473085   T   T   T
  0.3110770097740060  0.3976173030893692  0.3838855286948926   T   T   T
  0.2413389473387436  0.3038407175637294  0.4510927240782419   T   T   T
  0.4156036188951406  0.4092650750289590  0.4537140415194089   T   T   T
  0.4084845287841915  0.2290821222266274  0.4154129785119656   T   T   T
 
  0.00000000E+00  0.00000000E+00  0.00000000E+00
  0.00000000E+00  0.00000000E+00  0.00000000E+00
  0.00000000E+00  0.00000000E+00  0.00000000E+00
  0.00000000E+00  0.00000000E+00  0.00000000E+00
  0.00000000E+00  0.00000000E+00  0.00000000E+00
  0.00000000E+00  0.00000000E+00  0.00000000E+00
  0.00000000E+00  0.00000000E+00  0.00000000E+00
  0.00000000E+00  0.00000000E+00  0.00000000E+00
  0.00000000E+00  0.00000000E+00  0.00000000E+00
  0.00000000E+00  0.00000000E+00  0.00000000E+00
  0.00000000E+00  0.00000000E+00  0.00000000E+00
  0.00000000E+00  0.00000000E+00  0.00000000E+00
  0.00000000E+00  0.00000000E+00  0.00000000E+00
  0.00000000E+00  0.00000000E+00  0.00000000E+00
  0.00000000E+00  0.00000000E+00  0.00000000E+00
  0.00000000E+00  0.00000000E+00  0.00000000E+00
  0.00000000E+00  0.00000000E+00  0.00000000E+00
  0.00000000E+00  0.00000000E+00  0.00000000E+00
  0.00000000E+00  0.00000000E+00  0.00000000E+00
  0.00000000E+00  0.00000000E+00  0.00000000E+00
  0.00000000E+00  0.00000000E+00  0.00000000E+00
  0.00000000E+00  0.00000000E+00  0.00000000E+00
  0.00000000E+00  0.00000000E+00  0.00000000E+00
  0.00000000E+00  0.00000000E+00  0.00000000E+00
  0.00000000E+00  0.00000000E+00  0.00000000E+00
  0.00000000E+00  0.00000000E+00  0.00000000E+00
  0.00000000E+00  0.00000000E+00  0.00000000E+00
  0.00000000E+00  0.00000000E+00  0.00000000E+00
  0.00000000E+00  0.00000000E+00  0.00000000E+00
  0.00000000E+00  0.00000000E+00  0.00000000E+00
  0.00000000E+00  0.00000000E+00  0.00000000E+00
  0.00000000E+00  0.00000000E+00  0.00000000E+00
  0.00000000E+00  0.00000000E+00  0.00000000E+00
  0.00000000E+00  0.00000000E+00  0.00000000E+00
  0.00000000E+00  0.00000000E+00  0.00000000E+00
  0.00000000E+00  0.00000000E+00  0.00000000E+00
  0.00000000E+00  0.00000000E+00  0.00000000E+00
  0.00000000E+00  0.00000000E+00  0.00000000E+00
  0.00000000E+00  0.00000000E+00  0.00000000E+00
  0.00000000E+00  0.00000000E+00  0.00000000E+00
  0.00000000E+00  0.00000000E+00  0.00000000E+00
  0.00000000E+00  0.00000000E+00  0.00000000E+00
