Ag Tc Ag O  C  H                        
   1.00000000000000     
    12.4799995421999999    0.0000000000000000    0.0000000000000000
     0.0000000000000000    8.8247003554999992    0.0000000000000000
     0.0000000000000000    0.0000000000000000   19.4123001098999985
   Ag   Tc   Ag   O    C    H 
    16     1    19     1     1     4
Selective dynamics
Direct
  0.0087127459808882 -0.0016986147460561  0.2327419515867413   T   T   T
  0.1675791258512533  0.1708119141409979  0.1536484278477470   T   T   T
  0.1666699945754431  0.1666699946455736  0.0000000000000000   F   F   F
  0.0000000000000000  0.0000000000000000  0.0757699981286564   F   F   F
  0.3230745746449017  0.0005601409921977  0.2316246756772332   T   T   T
  0.4959765661373712  0.1631043984974958  0.1606633991657578   T   T   T
  0.4999999999919851  0.1666699946455736  0.0000000000000000   F   F   F
  0.3333300054165420  0.0000000000000000  0.0757699981286564   F   F   F
  0.6671870657023043 -0.0034379519353899  0.2289135581303563   T   T   T
  0.8366420430512400  0.1625977083207208  0.1579586602457927   T   T   T
  0.8333299756008401  0.1666699946455736  0.0000000000000000   F   F   F
  0.6666700243751222  0.0000000000000000  0.0757699981286564   F   F   F
  0.0003052417081364  0.3321033688519535  0.2289735818863428   T   T   T
  0.1690869654543489  0.4953239519507996  0.1574411383639734   T   T   T
  0.1666699945754431  0.5000000000283293  0.0000000000000000   F   F   F
  0.0000000000000000  0.3333300053827557  0.0757699981286564   F   F   F
  0.3329745700794940  0.3331907680942882  0.2267252472483829   T   T   T
  0.4979366160606826  0.4932228833392802  0.1582173397277698   T   T   T
  0.4999999999919851  0.5000000000283293  0.0000000000000000   F   F   F
  0.3333300054165420  0.3333300053827557  0.0757699981286564   F   F   F
  0.6674791102293558  0.3290094403971142  0.2285099154079336   T   T   T
  0.8330143078057796  0.4989600132215002  0.1565335789978744   T   T   T
  0.8333299756008401  0.5000000000283293  0.0000000000000000   F   F   F
  0.6666700243751222  0.3333300053827557  0.0757699981286564   F   F   F
  0.0028354043750094  0.6621508930489286  0.2283958895169419   T   T   T
  0.1673359748153511  0.8274309601993418  0.1501800442817232   T   T   T
  0.1666699945754431  0.8333299756083719  0.0000000000000000   F   F   F
  0.0000000000000000  0.6666700243632988  0.0757699981286564   F   F   F
  0.3327274785310581  0.6603039378774694  0.2284727747211737   T   T   T
  0.4964775208836063  0.8332528300901513  0.1573163940523312   T   T   T
  0.4999999999919851  0.8333299756083719  0.0000000000000000   F   F   F
  0.3333300054165420  0.6666700243632988  0.0757699981286564   F   F   F
  0.6650101074609713  0.6647310218597512  0.2273638925797485   T   T   T
  0.8369857733268858  0.8331271760444231  0.1586413716384343   T   T   T
  0.8333299756008401  0.8333299756083719  0.0000000000000000   F   F   F
  0.6666700243751222  0.6666700243632988  0.0757699981286564   F   F   F
  0.1639696652502608 -0.0514785084892974  0.2950227297889891   T   T   T
  0.3303613581678759  0.3879553026265782  0.3287228951967147   T   T   T
  0.3883638101078284  0.4601777771686064  0.3550927619828784   T   T   T
  0.2496125443255975  0.4037333276227827  0.3497300276548120   T   T   T
  0.3552299861730268  0.2659577537100355  0.3363499859892860   T   T   T
  0.1641797419573466  0.0057681780481826  0.3377293757201218   T   T   T
 
  0.00000000E+00  0.00000000E+00  0.00000000E+00
  0.00000000E+00  0.00000000E+00  0.00000000E+00
  0.00000000E+00  0.00000000E+00  0.00000000E+00
  0.00000000E+00  0.00000000E+00  0.00000000E+00
  0.00000000E+00  0.00000000E+00  0.00000000E+00
  0.00000000E+00  0.00000000E+00  0.00000000E+00
  0.00000000E+00  0.00000000E+00  0.00000000E+00
  0.00000000E+00  0.00000000E+00  0.00000000E+00
  0.00000000E+00  0.00000000E+00  0.00000000E+00
  0.00000000E+00  0.00000000E+00  0.00000000E+00
  0.00000000E+00  0.00000000E+00  0.00000000E+00
  0.00000000E+00  0.00000000E+00  0.00000000E+00
  0.00000000E+00  0.00000000E+00  0.00000000E+00
  0.00000000E+00  0.00000000E+00  0.00000000E+00
  0.00000000E+00  0.00000000E+00  0.00000000E+00
  0.00000000E+00  0.00000000E+00  0.00000000E+00
  0.00000000E+00  0.00000000E+00  0.00000000E+00
  0.00000000E+00  0.00000000E+00  0.00000000E+00
  0.00000000E+00  0.00000000E+00  0.00000000E+00
  0.00000000E+00  0.00000000E+00  0.00000000E+00
  0.00000000E+00  0.00000000E+00  0.00000000E+00
  0.00000000E+00  0.00000000E+00  0.00000000E+00
  0.00000000E+00  0.00000000E+00  0.00000000E+00
  0.00000000E+00  0.00000000E+00  0.00000000E+00
  0.00000000E+00  0.00000000E+00  0.00000000E+00
  0.00000000E+00  0.00000000E+00  0.00000000E+00
  0.00000000E+00  0.00000000E+00  0.00000000E+00
  0.00000000E+00  0.00000000E+00  0.00000000E+00
  0.00000000E+00  0.00000000E+00  0.00000000E+00
  0.00000000E+00  0.00000000E+00  0.00000000E+00
  0.00000000E+00  0.00000000E+00  0.00000000E+00
  0.00000000E+00  0.00000000E+00  0.00000000E+00
  0.00000000E+00  0.00000000E+00  0.00000000E+00
  0.00000000E+00  0.00000000E+00  0.00000000E+00
  0.00000000E+00  0.00000000E+00  0.00000000E+00
  0.00000000E+00  0.00000000E+00  0.00000000E+00
  0.00000000E+00  0.00000000E+00  0.00000000E+00
  0.00000000E+00  0.00000000E+00  0.00000000E+00
  0.00000000E+00  0.00000000E+00  0.00000000E+00
  0.00000000E+00  0.00000000E+00  0.00000000E+00
  0.00000000E+00  0.00000000E+00  0.00000000E+00
  0.00000000E+00  0.00000000E+00  0.00000000E+00
