Ag Sn Ag O  C  H                        
   1.00000000000000     
     8.8247003554999992    0.0000000000000000    0.0000000000000000
     0.0000000000000000    8.8247003554999992    0.0000000000000000
     0.0000000000000000    0.0000000000000000   21.2399997710999990
   Ag   Sn   Ag   O    C    H 
    17     1    18     1     1     4
Selective dynamics
Direct
  0.0000000000000000  0.0000000000000000  0.0979299992192182   F   F   F
  0.9997089705165162  0.9948946698322912  0.3008535065257206   T   T   T
  0.1666699946455736  0.1666699946455736  0.0000000000000000   F   F   F
  0.1651493007775404  0.1688063051502307  0.1976025537441934   T   T   T
  0.3333300053827557  0.0000000000000000  0.0979299992192182   F   F   F
  0.3333978797329588  0.0208036707426475  0.3025316212185515   T   T   T
  0.5000000000283293  0.1666699946455736  0.0000000000000000   F   F   F
  0.5012986457664788  0.1687477688070347  0.1975636170895301   T   T   T
  0.6666700243632988  0.0000000000000000  0.0979299992192182   F   F   F
  0.6670630739862421  0.9947552535873194  0.3008582578153828   T   T   T
  0.8333299756083719  0.1666699946455736  0.0000000000000000   F   F   F
  0.8332672000843648  0.1634663146381297  0.1990194930483912   T   T   T
  0.0000000000000000  0.3333300053827557  0.0979299992192182   F   F   F
  0.9979331595263505  0.3262419986545207  0.2992929667175457   T   T   T
  0.1666699946455736  0.5000000000283293  0.0000000000000000   F   F   F
  0.1700943798243958  0.5011756816688411  0.2015601549998551   T   T   T
  0.3333300053827557  0.3333300053827557  0.0979299992192182   F   F   F
  0.3328817720495042  0.3455162012672463  0.3200759552477964   T   T   T
  0.5000000000283293  0.5000000000283293  0.0000000000000000   F   F   F
  0.4964934839492844  0.5011651868275259  0.2016076571162514   T   T   T
  0.6666700243632988  0.3333300053827557  0.0979299992192182   F   F   F
  0.6684081446286768  0.3261166716756491  0.2991939181550423   T   T   T
  0.8333299756083719  0.5000000000283293  0.0000000000000000   F   F   F
  0.8332696877123615  0.4967618479042354  0.1995207594709080   T   T   T
  0.0000000000000000  0.6666700243632988  0.0979299992192182   F   F   F
  0.9982749110366148  0.6639318725739650  0.2996446805996497   T   T   T
  0.1666699946455736  0.8333299756083719  0.0000000000000000   F   F   F
  0.1681726856244056  0.8365385727479460  0.2002662750764875   T   T   T
  0.3333300053827557  0.6666700243632988  0.0979299992192182   F   F   F
  0.3333730988141240  0.7062082396512058  0.3060299686297943   T   T   T
  0.5000000000283293  0.8333299756083719  0.0000000000000000   F   F   F
  0.4985951468849600  0.8365009569038171  0.2002645603101896   T   T   T
  0.6666700243632988  0.6666700243632988  0.0979299992192182   F   F   F
  0.6684659042520353  0.6638406726774360  0.2996559582390447   T   T   T
  0.8333299756083719  0.8333299756083719  0.0000000000000000   F   F   F
  0.8333927903370162  0.8311219314195510  0.1989734787715053   T   T   T
  0.3334235342655560  0.5223189454111471  0.3764987721087134   T   T   T
  0.3333770059165395  0.2974725234740888  0.5097763521888902   T   T   T
  0.3333731548914370  0.1993680042773365  0.4783326693140685   T   T   T
  0.4342688582237172  0.2936430369020653  0.5393672630202914   T   T   T
  0.2324704092570268  0.2936379845576718  0.5393667038291986   T   T   T
  0.3333695724530799  0.4012484007695153  0.4818859741899536   T   T   T
 
  0.00000000E+00  0.00000000E+00  0.00000000E+00
  0.00000000E+00  0.00000000E+00  0.00000000E+00
  0.00000000E+00  0.00000000E+00  0.00000000E+00
  0.00000000E+00  0.00000000E+00  0.00000000E+00
  0.00000000E+00  0.00000000E+00  0.00000000E+00
  0.00000000E+00  0.00000000E+00  0.00000000E+00
  0.00000000E+00  0.00000000E+00  0.00000000E+00
  0.00000000E+00  0.00000000E+00  0.00000000E+00
  0.00000000E+00  0.00000000E+00  0.00000000E+00
  0.00000000E+00  0.00000000E+00  0.00000000E+00
  0.00000000E+00  0.00000000E+00  0.00000000E+00
  0.00000000E+00  0.00000000E+00  0.00000000E+00
  0.00000000E+00  0.00000000E+00  0.00000000E+00
  0.00000000E+00  0.00000000E+00  0.00000000E+00
  0.00000000E+00  0.00000000E+00  0.00000000E+00
  0.00000000E+00  0.00000000E+00  0.00000000E+00
  0.00000000E+00  0.00000000E+00  0.00000000E+00
  0.00000000E+00  0.00000000E+00  0.00000000E+00
  0.00000000E+00  0.00000000E+00  0.00000000E+00
  0.00000000E+00  0.00000000E+00  0.00000000E+00
  0.00000000E+00  0.00000000E+00  0.00000000E+00
  0.00000000E+00  0.00000000E+00  0.00000000E+00
  0.00000000E+00  0.00000000E+00  0.00000000E+00
  0.00000000E+00  0.00000000E+00  0.00000000E+00
  0.00000000E+00  0.00000000E+00  0.00000000E+00
  0.00000000E+00  0.00000000E+00  0.00000000E+00
  0.00000000E+00  0.00000000E+00  0.00000000E+00
  0.00000000E+00  0.00000000E+00  0.00000000E+00
  0.00000000E+00  0.00000000E+00  0.00000000E+00
  0.00000000E+00  0.00000000E+00  0.00000000E+00
  0.00000000E+00  0.00000000E+00  0.00000000E+00
  0.00000000E+00  0.00000000E+00  0.00000000E+00
  0.00000000E+00  0.00000000E+00  0.00000000E+00
  0.00000000E+00  0.00000000E+00  0.00000000E+00
  0.00000000E+00  0.00000000E+00  0.00000000E+00
  0.00000000E+00  0.00000000E+00  0.00000000E+00
  0.00000000E+00  0.00000000E+00  0.00000000E+00
  0.00000000E+00  0.00000000E+00  0.00000000E+00
  0.00000000E+00  0.00000000E+00  0.00000000E+00
  0.00000000E+00  0.00000000E+00  0.00000000E+00
  0.00000000E+00  0.00000000E+00  0.00000000E+00
  0.00000000E+00  0.00000000E+00  0.00000000E+00
