Ag In Ag O  C  H                        
   1.00000000000000     
     8.8247003554999992    0.0000000000000000    0.0000000000000000
    -4.4123501777999996    7.6424146886999997    0.0000000000000000
     0.0000000000000000    0.0000000000000000   22.2052993773999994
   Ag   In   Ag   O    C    H 
    17     1    18     1     1     4
Selective dynamics
Direct
     0.0000000000000000    0.0000000000000000    0.0000000000000000   F   F   F
     0.0064021017771868    0.9991019304017850    0.3295856373570417   T   T   T
     0.2257067227411821    0.1100929578104412    0.2197099202302864   T   T   T
     0.1111100018250966    0.2222200036476778    0.1081599965476912   F   F   F
     0.3333300053827557    0.0000000000000000    0.0000000000000000   F   F   F
     0.3341192156545486    0.9887811860744978    0.3290756112041053   T   T   T
     0.5580233815943236    0.1085604368983066    0.2190279083884112   T   T   T
     0.4444400072078523    0.2222200036476778    0.1081599965476912   F   F   F
     0.6666700243632988    0.0000000000000000    0.0000000000000000   F   F   F
     0.6724172257787372    0.9943139467084734    0.3284039677416474   T   T   T
     0.8920538647382772    0.1078114338929919    0.2176482008701906   T   T   T
     0.7777799963856893    0.2222200036476778    0.1081599965476912   F   F   F
     0.9999999999896119    0.3333300054715238    0.0000000000000000   F   F   F
     0.0076926688707748    0.3273333892746439    0.3266198176142369   T   T   T
     0.2260743043106202    0.4405078888462053    0.2170487111886668   T   T   T
     0.1111100017295215    0.5555599927438948    0.1081599965476912   F   F   F
     0.3333300054856849    0.3333300054715238    0.0000000000000000   F   F   F
     0.2873089638049791    0.3799463512424431    0.4049482641265434   T   T   T
     0.5564174115787733    0.4407785132535931    0.2197168857755486   T   T   T
     0.4444400072255874    0.5555599927438948    0.1081599965476912   F   F   F
     0.6666700244662280    0.3333300054715238    0.0000000000000000   F   F   F
     0.6779848795194725    0.3325676524210787    0.3290823123955267   T   T   T
     0.8907091776844432    0.4408498350340387    0.2190705406687890   T   T   T
     0.7777799964034244    0.5555599927438948    0.1081599965476912   F   F   F
     0.9999999999660858    0.6666700244012347    0.0000000000000000   F   F   F
     0.0032925674287284    0.6633860265390327    0.3288505597158773   T   T   T
     0.2257555259994191    0.7758928019345704    0.2190722238412247   T   T   T
     0.1111100017911895    0.8888900280489196    0.1081599965476912   F   F   F
     0.3333300054621589    0.6666700244012347    0.0000000000000000   F   F   F
     0.3393643081338734    0.6591207202391305    0.3266044455126879   T   T   T
     0.5586923880126931    0.7744661578660645    0.2176429125650158   T   T   T
     0.4444400072872554    0.8888900280489196    0.1081599965476912   F   F   F
     0.6666700244427020    0.6666700244012347    0.0000000000000000   F   F   F
     0.6674485954842381    0.6601964912186390    0.3296003113143501   T   T   T
     0.8908513741018450    0.7755915179058384    0.2190425115497518   T   T   T
     0.7777799964650924    0.8888900280489196    0.1081599965476912   F   F   F
     0.4305036980091490    0.2363126525936077    0.3992160973107104   T   T   T
     0.2676511151532019    0.3990859780790404    0.5039719570704499   T   T   T
     0.1975929346939532    0.4690504340277518    0.5137354156658346   T   T   T
     0.1965698182271843    0.2675086820693097    0.5231341634422306   T   T   T
     0.3991676679442891    0.4701767269043933    0.5231755083519487   T   T   T
     0.4564951351034980    0.2102386120993837    0.4390930138931718   T   T   T
 
  0.00000000E+00  0.00000000E+00  0.00000000E+00
  0.00000000E+00  0.00000000E+00  0.00000000E+00
  0.00000000E+00  0.00000000E+00  0.00000000E+00
  0.00000000E+00  0.00000000E+00  0.00000000E+00
  0.00000000E+00  0.00000000E+00  0.00000000E+00
  0.00000000E+00  0.00000000E+00  0.00000000E+00
  0.00000000E+00  0.00000000E+00  0.00000000E+00
  0.00000000E+00  0.00000000E+00  0.00000000E+00
  0.00000000E+00  0.00000000E+00  0.00000000E+00
  0.00000000E+00  0.00000000E+00  0.00000000E+00
  0.00000000E+00  0.00000000E+00  0.00000000E+00
  0.00000000E+00  0.00000000E+00  0.00000000E+00
  0.00000000E+00  0.00000000E+00  0.00000000E+00
  0.00000000E+00  0.00000000E+00  0.00000000E+00
  0.00000000E+00  0.00000000E+00  0.00000000E+00
  0.00000000E+00  0.00000000E+00  0.00000000E+00
  0.00000000E+00  0.00000000E+00  0.00000000E+00
  0.00000000E+00  0.00000000E+00  0.00000000E+00
  0.00000000E+00  0.00000000E+00  0.00000000E+00
  0.00000000E+00  0.00000000E+00  0.00000000E+00
  0.00000000E+00  0.00000000E+00  0.00000000E+00
  0.00000000E+00  0.00000000E+00  0.00000000E+00
  0.00000000E+00  0.00000000E+00  0.00000000E+00
  0.00000000E+00  0.00000000E+00  0.00000000E+00
  0.00000000E+00  0.00000000E+00  0.00000000E+00
  0.00000000E+00  0.00000000E+00  0.00000000E+00
  0.00000000E+00  0.00000000E+00  0.00000000E+00
  0.00000000E+00  0.00000000E+00  0.00000000E+00
  0.00000000E+00  0.00000000E+00  0.00000000E+00
  0.00000000E+00  0.00000000E+00  0.00000000E+00
  0.00000000E+00  0.00000000E+00  0.00000000E+00
  0.00000000E+00  0.00000000E+00  0.00000000E+00
  0.00000000E+00  0.00000000E+00  0.00000000E+00
  0.00000000E+00  0.00000000E+00  0.00000000E+00
  0.00000000E+00  0.00000000E+00  0.00000000E+00
  0.00000000E+00  0.00000000E+00  0.00000000E+00
  0.00000000E+00  0.00000000E+00  0.00000000E+00
  0.00000000E+00  0.00000000E+00  0.00000000E+00
  0.00000000E+00  0.00000000E+00  0.00000000E+00
  0.00000000E+00  0.00000000E+00  0.00000000E+00
  0.00000000E+00  0.00000000E+00  0.00000000E+00
  0.00000000E+00  0.00000000E+00  0.00000000E+00
