Cu Ga Cu O  C  H                        
   1.00000000000000     
    10.9200000762999991    0.0000000000000000    0.0000000000000000
     0.0000000000000000    7.7216000556999997    0.0000000000000000
     0.0000000000000000    0.0000000000000000   18.8607997894000015
   Cu   Ga   Cu   O    C    H 
    16     1    19     1     1     4
Selective dynamics
Direct
     0.0001748917246092    0.0023850194168816    0.2006501229552946   T   T   T
     0.1712227758349358    0.1676888140265480    0.1391735603121342   T   T   T
     0.1666699946229926    0.1666699946535033    0.0000000000000000   F   F   F
     0.0000000000000000    0.0000000000000000    0.0682300030947403   F   F   F
     0.3368296261016364    0.9971983443062193    0.2084181353154237   T   T   T
     0.4973307108125136    0.1649449418846182    0.1352017553907378   T   T   T
     0.4999999999862652    0.1666699946535033    0.0000000000000000   F   F   F
     0.3333300053632726    0.0000000000000000    0.0682300030947403   F   F   F
     0.6667467332271672    0.9989758230421698    0.1998503736126631   T   T   T
     0.8315445872492520    0.1698499228471144    0.1398490665315798   T   T   T
     0.8333299755876311    0.1666699946535033    0.0000000000000000   F   F   F
     0.6666700243711574    0.0000000000000000    0.0682300030947403   F   F   F
     0.0018543780501819    0.3346146827919230    0.2008867796610294   T   T   T
     0.1726605193448018    0.5009895385368764    0.1400665941156898   T   T   T
     0.1666699946229926    0.5000000000194262    0.0000000000000000   F   F   F
     0.0000000000000000    0.3333300053659229    0.0682300030947403   F   F   F
     0.3839154669401015    0.3362299977287857    0.2349089753587069   T   T   T
     0.4969799310759502    0.5043593905764584    0.1347998672883594   T   T   T
     0.4999999999862652    0.5000000000194262    0.0000000000000000   F   F   F
     0.3333300053632726    0.3333300053659229    0.0682300030947403   F   F   F
     0.6621148714352619    0.3334656047229936    0.2058060849993150   T   T   T
     0.8310652299649184    0.4980734008696778    0.1395581012847724   T   T   T
     0.8333299755876311    0.5000000000194262    0.0000000000000000   F   F   F
     0.6666700243711574    0.3333300053659229    0.0682300030947403   F   F   F
     0.0011344093843401    0.6656919867446390    0.2003524270638180   T   T   T
     0.1676351870942462    0.8343932920575949    0.1380209055560742   T   T   T
     0.1666699946229926    0.8333299755987795    0.0000000000000000   F   F   F
     0.0000000000000000    0.6666700243299957    0.0682300030947403   F   F   F
     0.3376814244055005    0.6755375507151018    0.2084193200869293   T   T   T
     0.4998977747635688    0.8346535196184406    0.1368265252483098   T   T   T
     0.4999999999862652    0.8333299755987795    0.0000000000000000   F   F   F
     0.3333300053632726    0.6666700243299957    0.0682300030947403   F   F   F
     0.6652963837399460    0.6692073248440488    0.2000864193931051   T   T   T
     0.8342516303197676    0.8333928695816254    0.1390077939944679   T   T   T
     0.8333299755876311    0.8333299755987795    0.0000000000000000   F   F   F
     0.6666700243711574    0.6666700243299957    0.0682300030947403   F   F   F
     0.5455675212347608    0.3493732675952990    0.2906303616920703   T   T   T
     0.3314349243049673    0.8469105274230661    0.3019354636075564   T   T   T
     0.3014959348555334    0.7169304864989652    0.3192202567945069   T   T   T
     0.4192585610219565    0.8731299174285289    0.3276141813796977   T   T   T
     0.2608667682268325    0.9347025119108006    0.3226887333918742   T   T   T
     0.5585430204942889    0.2638122720011594    0.3274888177458141   T   T   T
 
  0.00000000E+00  0.00000000E+00  0.00000000E+00
  0.00000000E+00  0.00000000E+00  0.00000000E+00
  0.00000000E+00  0.00000000E+00  0.00000000E+00
  0.00000000E+00  0.00000000E+00  0.00000000E+00
  0.00000000E+00  0.00000000E+00  0.00000000E+00
  0.00000000E+00  0.00000000E+00  0.00000000E+00
  0.00000000E+00  0.00000000E+00  0.00000000E+00
  0.00000000E+00  0.00000000E+00  0.00000000E+00
  0.00000000E+00  0.00000000E+00  0.00000000E+00
  0.00000000E+00  0.00000000E+00  0.00000000E+00
  0.00000000E+00  0.00000000E+00  0.00000000E+00
  0.00000000E+00  0.00000000E+00  0.00000000E+00
  0.00000000E+00  0.00000000E+00  0.00000000E+00
  0.00000000E+00  0.00000000E+00  0.00000000E+00
  0.00000000E+00  0.00000000E+00  0.00000000E+00
  0.00000000E+00  0.00000000E+00  0.00000000E+00
  0.00000000E+00  0.00000000E+00  0.00000000E+00
  0.00000000E+00  0.00000000E+00  0.00000000E+00
  0.00000000E+00  0.00000000E+00  0.00000000E+00
  0.00000000E+00  0.00000000E+00  0.00000000E+00
  0.00000000E+00  0.00000000E+00  0.00000000E+00
  0.00000000E+00  0.00000000E+00  0.00000000E+00
  0.00000000E+00  0.00000000E+00  0.00000000E+00
  0.00000000E+00  0.00000000E+00  0.00000000E+00
  0.00000000E+00  0.00000000E+00  0.00000000E+00
  0.00000000E+00  0.00000000E+00  0.00000000E+00
  0.00000000E+00  0.00000000E+00  0.00000000E+00
  0.00000000E+00  0.00000000E+00  0.00000000E+00
  0.00000000E+00  0.00000000E+00  0.00000000E+00
  0.00000000E+00  0.00000000E+00  0.00000000E+00
  0.00000000E+00  0.00000000E+00  0.00000000E+00
  0.00000000E+00  0.00000000E+00  0.00000000E+00
  0.00000000E+00  0.00000000E+00  0.00000000E+00
  0.00000000E+00  0.00000000E+00  0.00000000E+00
  0.00000000E+00  0.00000000E+00  0.00000000E+00
  0.00000000E+00  0.00000000E+00  0.00000000E+00
  0.00000000E+00  0.00000000E+00  0.00000000E+00
  0.00000000E+00  0.00000000E+00  0.00000000E+00
  0.00000000E+00  0.00000000E+00  0.00000000E+00
  0.00000000E+00  0.00000000E+00  0.00000000E+00
  0.00000000E+00  0.00000000E+00  0.00000000E+00
  0.00000000E+00  0.00000000E+00  0.00000000E+00
