Cu Zr Cu O  C  H                        
   1.00000000000000     
     6.3046998978000000    0.0000000000000000    0.0000000000000000
     0.0000000000000000    7.7216000556999997    0.0000000000000000
     0.0000000000000000    0.0000000000000000   25.4022006988999998
   Cu   Zr   Cu   O    C    H 
    19     1    25     1     1     4
Selective dynamics
Direct
  0.0000000000000000  0.0000000000000000  0.0000000000000000   F   F   F
  0.3333299999999966  0.0000000000000000  0.1169999999999973   F   F   F
  0.6643672161860643  0.0015940435348129  0.2341051527898898   T   T   T
  0.9884489056818261  0.0087256524149237  0.3563870040025331   T   T   T
  0.6419089700864531  0.9915501441366863  0.4112019140949355   T   T   T
  0.6666700000000034  0.0000000000000000  0.0585000000000022   F   F   F
 -0.0004636449005798  0.0004464286172793  0.1762206448048061   T   T   T
  0.3276229226317506  0.0041709764783513  0.2942536196274098   T   T   T
  0.3333299999999966  0.1666700000000034  0.0292499999999976   F   F   F
  0.6666700000000034  0.1666700000000034  0.1462500000000020   F   F   F
 -0.0010203428797719  0.1680302406483382  0.2634680446043055   T   T   T
  0.3313219023127123  0.1739684526143031  0.3829890112224015   T   T   T
  0.0000000000000000  0.1666700000000034  0.0877499999999998   F   F   F
  0.3331048580882856  0.1670642954412839  0.2054891177506913   T   T   T
  0.6669767040477923  0.1661726125185624  0.3244744099065866   T   T   T
  0.0000000000000000  0.3333299999999966  0.0000000000000000   F   F   F
  0.3333299999999966  0.3333299999999966  0.1169999999999973   F   F   F
  0.6684009646927809  0.3349881502681942  0.2353455399213790   T   T   T
  0.0123253911591861  0.3370806769246296  0.3494873843645451   T   T   T
  0.7088109246650924  0.3376319388962719  0.4223360509744724   T   T   T
  0.6666700000000034  0.3333299999999966  0.0585000000000022   F   F   F
  0.0010168343540991  0.3342324999537776  0.1754147849422079   T   T   T
  0.3393210836847433  0.3361246021688127  0.2921749886924901   T   T   T
  0.3333299999999966  0.5000000000000000  0.0292499999999976   F   F   F
  0.6666700000000034  0.5000000000000000  0.1462500000000020   F   F   F
 -0.0008483324958187  0.5033651106323475  0.2632495778051643   T   T   T
  0.3318688265302883  0.5003813618954974  0.3826711891278650   T   T   T
  0.0000000000000000  0.5000000000000000  0.0877499999999998   F   F   F
  0.3332538589601391  0.5022770865367092  0.2054432773984469   T   T   T
  0.6674587322078979  0.5057989523871287  0.3246638117632042   T   T   T
  0.0000000000000000  0.6666700000000034  0.0000000000000000   F   F   F
  0.3333299999999966  0.6666700000000034  0.1169999999999973   F   F   F
  0.6643235306697624  0.6677495811098290  0.2342857267765713   T   T   T
  0.9896593928737967  0.6659692164040061  0.3559711397817302   T   T   T
  0.6428844637601679  0.6836864429535184  0.4108903721490775   T   T   T
  0.6666700000000034  0.6666700000000034  0.0585000000000022   F   F   F
 -0.0005726079786086  0.6682113402322638  0.1759978134168604   T   T   T
  0.3282530135468424  0.6680640884213056  0.2942809835317528   T   T   T
  0.3333299999999966  0.8333299999999966  0.0292499999999976   F   F   F
  0.6666700000000034  0.8333299999999966  0.1462500000000020   F   F   F
 -0.0022301721575082  0.8357618611591004  0.2652009125315178   T   T   T
  0.3096314944062721  0.8373740088927299  0.3797593067874397   T   T   T
  0.0000000000000000  0.8333299999999966  0.0877499999999998   F   F   F
  0.3319881558432341  0.8346279677004258  0.2058064937894090   T   T   T
  0.6623843015931078  0.8364477213856041  0.3212097135433718   T   T   T
  0.7646074010885446  0.3483336683740175  0.4978957985018745   T   T   T
  0.6603335996513199  0.8306070558053353  0.4815575341898433   T   T   T
  0.6253365594710216  0.9614537453208859  0.4964297283392652   T   T   T
  0.5429982267310809  0.7468336441793355  0.5005560714796660   T   T   T
  0.8201030574040745  0.7973070303440708  0.4948130692620642   T   T   T
  0.8200896732073900  0.3819905860839229  0.5315855949747997   T   T   T
 
  0.00000000E+00  0.00000000E+00  0.00000000E+00
  0.00000000E+00  0.00000000E+00  0.00000000E+00
  0.00000000E+00  0.00000000E+00  0.00000000E+00
  0.00000000E+00  0.00000000E+00  0.00000000E+00
  0.00000000E+00  0.00000000E+00  0.00000000E+00
  0.00000000E+00  0.00000000E+00  0.00000000E+00
  0.00000000E+00  0.00000000E+00  0.00000000E+00
  0.00000000E+00  0.00000000E+00  0.00000000E+00
  0.00000000E+00  0.00000000E+00  0.00000000E+00
  0.00000000E+00  0.00000000E+00  0.00000000E+00
  0.00000000E+00  0.00000000E+00  0.00000000E+00
  0.00000000E+00  0.00000000E+00  0.00000000E+00
  0.00000000E+00  0.00000000E+00  0.00000000E+00
  0.00000000E+00  0.00000000E+00  0.00000000E+00
  0.00000000E+00  0.00000000E+00  0.00000000E+00
  0.00000000E+00  0.00000000E+00  0.00000000E+00
  0.00000000E+00  0.00000000E+00  0.00000000E+00
  0.00000000E+00  0.00000000E+00  0.00000000E+00
  0.00000000E+00  0.00000000E+00  0.00000000E+00
  0.00000000E+00  0.00000000E+00  0.00000000E+00
  0.00000000E+00  0.00000000E+00  0.00000000E+00
  0.00000000E+00  0.00000000E+00  0.00000000E+00
  0.00000000E+00  0.00000000E+00  0.00000000E+00
  0.00000000E+00  0.00000000E+00  0.00000000E+00
  0.00000000E+00  0.00000000E+00  0.00000000E+00
  0.00000000E+00  0.00000000E+00  0.00000000E+00
  0.00000000E+00  0.00000000E+00  0.00000000E+00
  0.00000000E+00  0.00000000E+00  0.00000000E+00
  0.00000000E+00  0.00000000E+00  0.00000000E+00
  0.00000000E+00  0.00000000E+00  0.00000000E+00
  0.00000000E+00  0.00000000E+00  0.00000000E+00
  0.00000000E+00  0.00000000E+00  0.00000000E+00
  0.00000000E+00  0.00000000E+00  0.00000000E+00
  0.00000000E+00  0.00000000E+00  0.00000000E+00
  0.00000000E+00  0.00000000E+00  0.00000000E+00
  0.00000000E+00  0.00000000E+00  0.00000000E+00
  0.00000000E+00  0.00000000E+00  0.00000000E+00
  0.00000000E+00  0.00000000E+00  0.00000000E+00
  0.00000000E+00  0.00000000E+00  0.00000000E+00
  0.00000000E+00  0.00000000E+00  0.00000000E+00
  0.00000000E+00  0.00000000E+00  0.00000000E+00
  0.00000000E+00  0.00000000E+00  0.00000000E+00
  0.00000000E+00  0.00000000E+00  0.00000000E+00
  0.00000000E+00  0.00000000E+00  0.00000000E+00
  0.00000000E+00  0.00000000E+00  0.00000000E+00
  0.00000000E+00  0.00000000E+00  0.00000000E+00
  0.00000000E+00  0.00000000E+00  0.00000000E+00
  0.00000000E+00  0.00000000E+00  0.00000000E+00
  0.00000000E+00  0.00000000E+00  0.00000000E+00
  0.00000000E+00  0.00000000E+00  0.00000000E+00
  0.00000000E+00  0.00000000E+00  0.00000000E+00
