Ag Ga Ag O  C  H                        
   1.00000000000000     
    12.4799995421999999    0.0000000000000000    0.0000000000000000
     0.0000000000000000    8.8247003554999992    0.0000000000000000
     0.0000000000000000    0.0000000000000000   19.4123001098999985
   Ag   Ga   Ag   O    C    H 
    16     1    19     1     1     4
Selective dynamics
Direct
     0.0017523016916079    0.0019485298350075    0.2286786584986936   T   T   T
     0.1737337688235290    0.1732455169193281    0.1604667055411014   T   T   T
     0.1666699945754431    0.1666699946455736    0.0000000000000000   F   F   F
     0.0000000000000000    0.0000000000000000    0.0757699981286564   F   F   F
     0.3363461609531433    0.9974764691236068    0.2280077172163330   T   T   T
     0.4973746506867674    0.1703845153510238    0.1563552347593778   T   T   T
     0.4999999999919851    0.1666699946455736    0.0000000000000000   F   F   F
     0.3333300054165420    0.0000000000000000    0.0757699981286564   F   F   F
     0.6648774075275833    0.0033921845797574    0.2280972907881051   T   T   T
     0.8349307783193226    0.1698513406718114    0.1573522520325999   T   T   T
     0.8333299756008401    0.1666699946455736    0.0000000000000000   F   F   F
     0.6666700243751222    0.0000000000000000    0.0757699981286564   F   F   F
     0.0034190750659259    0.3385442031427432    0.2299565208142293   T   T   T
     0.1685587767782430    0.5017779958744500    0.1543759290418157   T   T   T
     0.1666699945754431    0.5000000000283293    0.0000000000000000   F   F   F
     0.0000000000000000    0.3333300053827557    0.0757699981286564   F   F   F
     0.1914970987747367    0.3054999625401462    0.2944649281431536   T   T   T
     0.4986006064710326    0.4983136933125194    0.1546274599594005   T   T   T
     0.4999999999919851    0.5000000000283293    0.0000000000000000   F   F   F
     0.3333300054165420    0.3333300053827557    0.0757699981286564   F   F   F
     0.6659001456065889    0.3354501675961344    0.2295784151930071   T   T   T
     0.8346693290039215    0.5007757156872822    0.1575191732582312   T   T   T
     0.8333299756008401    0.5000000000283293    0.0000000000000000   F   F   F
     0.6666700243751222    0.3333300053827557    0.0757699981286564   F   F   F
     0.0023666407938200    0.6704962865822282    0.2297241047710354   T   T   T
     0.1677375271448314    0.8354872544964389    0.1560293536085555   T   T   T
     0.1666699945754431    0.8333299756083719    0.0000000000000000   F   F   F
     0.0000000000000000    0.6666700243632988    0.0757699981286564   F   F   F
     0.3365742394176340    0.6666710774548101    0.2293682480121129   T   T   T
     0.5007101349580342    0.8329685893190716    0.1562824301273363   T   T   T
     0.4999999999919851    0.8333299756083719    0.0000000000000000   F   F   F
     0.3333300054165420    0.6666700243632988    0.0757699981286564   F   F   F
     0.6657396822326090    0.6668827447196966    0.2286632565111303   T   T   T
     0.8329246202204564    0.8354596560141345    0.1577687895316389   T   T   T
     0.8333299756008401    0.8333299756083719    0.0000000000000000   F   F   F
     0.6666700243751222    0.6666700243632988    0.0757699981286564   F   F   F
     0.2907075322859072    0.4703781183150506    0.3048253687542589   T   T   T
     0.2141457141220307    0.1883289532903710    0.3821117270803215   T   T   T
     0.1806731063717526    0.0741536610388943    0.3797531038610394   T   T   T
     0.3000986056179958    0.1819608112691259    0.3934437301761142   T   T   T
     0.1747994353280894    0.2514669037021539    0.4236772630696602   T   T   T
     0.3380082339659431    0.4547012103928132    0.3437300711928047   T   T   T
 
  0.00000000E+00  0.00000000E+00  0.00000000E+00
  0.00000000E+00  0.00000000E+00  0.00000000E+00
  0.00000000E+00  0.00000000E+00  0.00000000E+00
  0.00000000E+00  0.00000000E+00  0.00000000E+00
  0.00000000E+00  0.00000000E+00  0.00000000E+00
  0.00000000E+00  0.00000000E+00  0.00000000E+00
  0.00000000E+00  0.00000000E+00  0.00000000E+00
  0.00000000E+00  0.00000000E+00  0.00000000E+00
  0.00000000E+00  0.00000000E+00  0.00000000E+00
  0.00000000E+00  0.00000000E+00  0.00000000E+00
  0.00000000E+00  0.00000000E+00  0.00000000E+00
  0.00000000E+00  0.00000000E+00  0.00000000E+00
  0.00000000E+00  0.00000000E+00  0.00000000E+00
  0.00000000E+00  0.00000000E+00  0.00000000E+00
  0.00000000E+00  0.00000000E+00  0.00000000E+00
  0.00000000E+00  0.00000000E+00  0.00000000E+00
  0.00000000E+00  0.00000000E+00  0.00000000E+00
  0.00000000E+00  0.00000000E+00  0.00000000E+00
  0.00000000E+00  0.00000000E+00  0.00000000E+00
  0.00000000E+00  0.00000000E+00  0.00000000E+00
  0.00000000E+00  0.00000000E+00  0.00000000E+00
  0.00000000E+00  0.00000000E+00  0.00000000E+00
  0.00000000E+00  0.00000000E+00  0.00000000E+00
  0.00000000E+00  0.00000000E+00  0.00000000E+00
  0.00000000E+00  0.00000000E+00  0.00000000E+00
  0.00000000E+00  0.00000000E+00  0.00000000E+00
  0.00000000E+00  0.00000000E+00  0.00000000E+00
  0.00000000E+00  0.00000000E+00  0.00000000E+00
  0.00000000E+00  0.00000000E+00  0.00000000E+00
  0.00000000E+00  0.00000000E+00  0.00000000E+00
  0.00000000E+00  0.00000000E+00  0.00000000E+00
  0.00000000E+00  0.00000000E+00  0.00000000E+00
  0.00000000E+00  0.00000000E+00  0.00000000E+00
  0.00000000E+00  0.00000000E+00  0.00000000E+00
  0.00000000E+00  0.00000000E+00  0.00000000E+00
  0.00000000E+00  0.00000000E+00  0.00000000E+00
  0.00000000E+00  0.00000000E+00  0.00000000E+00
  0.00000000E+00  0.00000000E+00  0.00000000E+00
  0.00000000E+00  0.00000000E+00  0.00000000E+00
  0.00000000E+00  0.00000000E+00  0.00000000E+00
  0.00000000E+00  0.00000000E+00  0.00000000E+00
  0.00000000E+00  0.00000000E+00  0.00000000E+00
