Au Hf Au O                              
   1.00000000000000     
     8.8458995818999995    0.0000000000000000    0.0000000000000000
     0.0000000000000000    8.8458995818999995    0.0000000000000000
     0.0000000000000000    0.0000000000000000   21.2549991608000006
   Au   Hf   Au   O 
    17     1    18     1
Selective dynamics
Direct
     0.0000000000000000    0.0000000000000000    0.0980900004383471   F   F   F
     0.9985084906915198    0.9998984015951736    0.2918881289265421   T   T   T
     0.1666699945381183    0.1666699945381183    0.0000000000000000   F   F   F
     0.1702395588223755    0.1675732258771382    0.1985107388651007   T   T   T
     0.3333300053544903    0.0000000000000000    0.0980900004383471   F   F   F
     0.3333341639464209    0.9821864965335110    0.2968150776707070   T   T   T
     0.5000000000056559    0.1666699945381183    0.0000000000000000   F   F   F
     0.4964346591731575    0.1675743835389492    0.1985089862388696   T   T   T
     0.6666700243881039    0.0000000000000000    0.0980900004383471   F   F   F
     0.6681488012197517    0.9999197703634515    0.2918783119213599   T   T   T
     0.8333299756288497    0.1666699945381183    0.0000000000000000   F   F   F
     0.8333320671331127    0.1666831517652070    0.1946579523714371   T   T   T
     0.0000000000000000    0.3333300053544903    0.0980900004383471   F   F   F
     0.0028361165085036    0.3365600432900409    0.2927746909659417   T   T   T
     0.1666699945381183    0.5000000000056559    0.0000000000000000   F   F   F
     0.1673369717499725    0.4988168897639341    0.1957349468441398   T   T   T
     0.3333300053544903    0.3333300053544903    0.0980900004383471   F   F   F
     0.3333357750622919    0.3192771534888139    0.3011249185776010   T   T   T
     0.5000000000056559    0.5000000000056559    0.0000000000000000   F   F   F
     0.4993338955251740    0.4988106813986874    0.1957312305058998   T   T   T
     0.6666700243881039    0.3333300053544903    0.0980900004383471   F   F   F
     0.6638240704387225    0.3365625170247381    0.2927820498619960   T   T   T
     0.8333299756288497    0.5000000000056559    0.0000000000000000   F   F   F
     0.8333335175902514    0.5020364372768233    0.1956580035166222   T   T   T
     0.0000000000000000    0.6666700243881039    0.0980900004383471   F   F   F
     0.0024596261234628    0.6645330256953084    0.2942098054054360   T   T   T
     0.1666699945381183    0.8333299756288497    0.0000000000000000   F   F   F
     0.1677840652430578    0.8321560625831916    0.1969210134747742   T   T   T
     0.3333300053544903    0.6666700243881039    0.0980900004383471   F   F   F
     0.3333362827263805    0.6483654166335838    0.2964002060369947   T   T   T
     0.5000000000056559    0.8333299756288497    0.0000000000000000   F   F   F
     0.4988822627504687    0.8321554796707998    0.1969177806940433   T   T   T
     0.6666700243881039    0.6666700243881039    0.0980900004383471   F   F   F
     0.6642026323957775    0.6645270369865495    0.2942086859208518   T   T   T
     0.8333299756288497    0.8333299756288497    0.0000000000000000   F   F   F
     0.8333332649956402    0.8311600973705090    0.1971726844880250   T   T   T
     0.3333337621738782    0.2067095112656621    0.3715621144471921   T   T   T
 
  0.00000000E+00  0.00000000E+00  0.00000000E+00
  0.00000000E+00  0.00000000E+00  0.00000000E+00
  0.00000000E+00  0.00000000E+00  0.00000000E+00
  0.00000000E+00  0.00000000E+00  0.00000000E+00
  0.00000000E+00  0.00000000E+00  0.00000000E+00
  0.00000000E+00  0.00000000E+00  0.00000000E+00
  0.00000000E+00  0.00000000E+00  0.00000000E+00
  0.00000000E+00  0.00000000E+00  0.00000000E+00
  0.00000000E+00  0.00000000E+00  0.00000000E+00
  0.00000000E+00  0.00000000E+00  0.00000000E+00
  0.00000000E+00  0.00000000E+00  0.00000000E+00
  0.00000000E+00  0.00000000E+00  0.00000000E+00
  0.00000000E+00  0.00000000E+00  0.00000000E+00
  0.00000000E+00  0.00000000E+00  0.00000000E+00
  0.00000000E+00  0.00000000E+00  0.00000000E+00
  0.00000000E+00  0.00000000E+00  0.00000000E+00
  0.00000000E+00  0.00000000E+00  0.00000000E+00
  0.00000000E+00  0.00000000E+00  0.00000000E+00
  0.00000000E+00  0.00000000E+00  0.00000000E+00
  0.00000000E+00  0.00000000E+00  0.00000000E+00
  0.00000000E+00  0.00000000E+00  0.00000000E+00
  0.00000000E+00  0.00000000E+00  0.00000000E+00
  0.00000000E+00  0.00000000E+00  0.00000000E+00
  0.00000000E+00  0.00000000E+00  0.00000000E+00
  0.00000000E+00  0.00000000E+00  0.00000000E+00
  0.00000000E+00  0.00000000E+00  0.00000000E+00
  0.00000000E+00  0.00000000E+00  0.00000000E+00
  0.00000000E+00  0.00000000E+00  0.00000000E+00
  0.00000000E+00  0.00000000E+00  0.00000000E+00
  0.00000000E+00  0.00000000E+00  0.00000000E+00
  0.00000000E+00  0.00000000E+00  0.00000000E+00
  0.00000000E+00  0.00000000E+00  0.00000000E+00
  0.00000000E+00  0.00000000E+00  0.00000000E+00
  0.00000000E+00  0.00000000E+00  0.00000000E+00
  0.00000000E+00  0.00000000E+00  0.00000000E+00
  0.00000000E+00  0.00000000E+00  0.00000000E+00
  0.00000000E+00  0.00000000E+00  0.00000000E+00
