Ni                                      
   1.00000000000000     
     7.4670000076000003    0.0000000000000000    0.0000000000000000
     0.0000000000000000    7.4670000076000003    0.0000000000000000
     0.0000000000000000    0.0000000000000000   20.2800006866000011
   Ni
    36
Selective dynamics
Direct
  0.0000000000000000  0.0000000000000000  0.0867900028801785   F   F   F
  0.0000012207143210  0.0000017817182447  0.2613354031363190   T   T   T
  0.1666699946073820  0.1666699946073820  0.0000000000000000   F   F   F
  0.1664010930722521  0.1664065975839533  0.1757816939202551   T   T   T
  0.3333300054194055  0.0000000000000000  0.0867900028801785   F   F   F
  0.3332042506030090 -0.0000004135537084  0.2610961691090598   T   T   T
  0.5000000000267875  0.1666699946073820  0.0000000000000000   F   F   F
  0.4999983298668250  0.1661066057095673  0.1758121506906509   T   T   T
  0.6666700243649828  0.0000000000000000  0.0867900028801785   F   F   F
  0.6667963003008260 -0.0000001268442173  0.2610932757459501   T   T   T
  0.8333299755814494  0.1666699946073820  0.0000000000000000   F   F   F
  0.8336011932425753  0.1664059324613294  0.1757810444798046   T   T   T
  0.0000000000000000  0.3333300054194055  0.0867900028801785   F   F   F
  0.0000005631303689  0.3331994018666176  0.2610712681379870   T   T   T
  0.1666699946073820  0.5000000000267875  0.0000000000000000   F   F   F
  0.1661386460990783  0.4999972268591917  0.1758329795453883   T   T   T
  0.3333300054194055  0.3333300054194055  0.0867900028801785   F   F   F
  0.3334573304251776  0.3334659409547674  0.2610578565766100   T   T   T
  0.5000000000267875  0.5000000000267875  0.0000000000000000   F   F   F
  0.4999995633531261  0.4999995891210144  0.1758378721791504   T   T   T
  0.6666700243649828  0.3333300054194055  0.0867900028801785   F   F   F
  0.6665422118857456  0.3334669785128770  0.2610575420023768   T   T   T
  0.8333299755814494  0.5000000000267875  0.0000000000000000   F   F   F
  0.8338646153139262  0.4999972685237954  0.1758331443424286   T   T   T
  0.0000000000000000  0.6666700243649828  0.0867900028801785   F   F   F
  0.0000006668317512  0.6667987093503843  0.2610692614392326   T   T   T
  0.1666699946073820  0.8333299755814494  0.0000000000000000   F   F   F
  0.1664011674436791  0.8335965763603922  0.1757811666424517   T   T   T
  0.3333300054194055  0.6666700243649828  0.0867900028801785   F   F   F
  0.3334596000897863  0.6665343225290831  0.2610558487446587   T   T   T
  0.5000000000267875  0.8333299755814494  0.0000000000000000   F   F   F
  0.4999989985286571  0.8338934092586184  0.1758099009230303   T   T   T
  0.6666700243649828  0.6666700243649828  0.0867900028801785   F   F   F
  0.6665394543747379  0.6665337340614296  0.2610553526084246   T   T   T
  0.8333299755814494  0.8333299755814494  0.0000000000000000   F   F   F
  0.8335984520069647  0.8335957514201179  0.1757805423333473   T   T   T
 
  0.00000000E+00  0.00000000E+00  0.00000000E+00
  0.00000000E+00  0.00000000E+00  0.00000000E+00
  0.00000000E+00  0.00000000E+00  0.00000000E+00
  0.00000000E+00  0.00000000E+00  0.00000000E+00
  0.00000000E+00  0.00000000E+00  0.00000000E+00
  0.00000000E+00  0.00000000E+00  0.00000000E+00
  0.00000000E+00  0.00000000E+00  0.00000000E+00
  0.00000000E+00  0.00000000E+00  0.00000000E+00
  0.00000000E+00  0.00000000E+00  0.00000000E+00
  0.00000000E+00  0.00000000E+00  0.00000000E+00
  0.00000000E+00  0.00000000E+00  0.00000000E+00
  0.00000000E+00  0.00000000E+00  0.00000000E+00
  0.00000000E+00  0.00000000E+00  0.00000000E+00
  0.00000000E+00  0.00000000E+00  0.00000000E+00
  0.00000000E+00  0.00000000E+00  0.00000000E+00
  0.00000000E+00  0.00000000E+00  0.00000000E+00
  0.00000000E+00  0.00000000E+00  0.00000000E+00
  0.00000000E+00  0.00000000E+00  0.00000000E+00
  0.00000000E+00  0.00000000E+00  0.00000000E+00
  0.00000000E+00  0.00000000E+00  0.00000000E+00
  0.00000000E+00  0.00000000E+00  0.00000000E+00
  0.00000000E+00  0.00000000E+00  0.00000000E+00
  0.00000000E+00  0.00000000E+00  0.00000000E+00
  0.00000000E+00  0.00000000E+00  0.00000000E+00
  0.00000000E+00  0.00000000E+00  0.00000000E+00
  0.00000000E+00  0.00000000E+00  0.00000000E+00
  0.00000000E+00  0.00000000E+00  0.00000000E+00
  0.00000000E+00  0.00000000E+00  0.00000000E+00
  0.00000000E+00  0.00000000E+00  0.00000000E+00
  0.00000000E+00  0.00000000E+00  0.00000000E+00
  0.00000000E+00  0.00000000E+00  0.00000000E+00
  0.00000000E+00  0.00000000E+00  0.00000000E+00
  0.00000000E+00  0.00000000E+00  0.00000000E+00
  0.00000000E+00  0.00000000E+00  0.00000000E+00
  0.00000000E+00  0.00000000E+00  0.00000000E+00
  0.00000000E+00  0.00000000E+00  0.00000000E+00
