Cu Sc Cu O                              
   1.00000000000000     
     7.7216000556999997    0.0000000000000000    0.0000000000000000
    -3.8608000277999999    6.6871018061000003    0.0000000000000000
     0.0000000000000000    0.0000000000000000   21.3047008513999998
   Cu   Sc   Cu   O 
    17     1    18     1
Selective dynamics
Direct
  0.0000000000000000  0.0000000000000000  0.0000000000000000   F   F   F
  0.9899693165283254 -0.0038766942302821  0.2986014806965371   T   T   T
  0.2229288143638318  0.1123160076091628  0.1995749074822150   T   T   T
  0.1111100017667752  0.2222200035364281  0.0986400023008045   F   F   F
  0.3333300053659229  0.0000000000000000  0.0000000000000000   F   F   F
  0.3395363209469344  0.9962262826601375  0.2986104908315463   T   T   T
  0.5519602339625298  0.1088580673508567  0.1972784991834511   T   T   T
  0.4444400071326982  0.2222200035364281  0.0986400023008045   F   F   F
  0.6666700243299957  0.0000000000000000  0.0000000000000000   F   F   F
  0.6667428454904144  0.0001652594454080  0.2933803783163497   T   T   T
  0.8905515419353598  0.1090187770013372  0.1972501382569587   T   T   T
  0.7777799963101941  0.2222200035364281  0.0986400023008045   F   F   F
  0.0000000000045830  0.3333300053794161  0.0000000000000000   F   F   F
 -0.0029849000942821  0.3376353939412832  0.2918171638176283   T   T   T
  0.2238703396210384  0.4408915871753937  0.1980535401626511   T   T   T
  0.1111100017242208  0.5555599927626460  0.0986400023008045   F   F   F
  0.3333300053705130  0.3333300053794161  0.0000000000000000   F   F   F
  0.3384213940076549  0.3435743629782599  0.3325356208291360   T   T   T
  0.5502417523219799  0.4407825315624823  0.1980225310802224   T   T   T
  0.4444400072196544  0.5555599927626460  0.0986400023008045   F   F   F
  0.6666700243345787  0.3333300053794161  0.0000000000000000   F   F   F
  0.6738548267384246  0.3375477468829176  0.2917765061113288   T   T   T
  0.8892596124971355  0.4450013233038081  0.1941713060873802   T   T   T
  0.7777799963971503  0.5555599927626460  0.0986400023008045   F   F   F
  0.9999999999481375  0.6666700243644144  0.0000000000000000   F   F   F
 -0.0016388252941245  0.6635447543006033  0.2925075817042562   T   T   T
  0.2221080825041763  0.7801657973594928  0.1962202002216458   T   T   T
  0.1111100017896831  0.8888900280503833  0.0986400023008045   F   F   F
  0.3333300054435711  0.6666700243644144  0.0000000000000000   F   F   F
  0.3336238476113247  0.6738814201949854  0.2913449074606955   T   T   T
  0.5552191690105565  0.7768623000802615  0.1952476960317564   T   T   T
  0.4444400072851167  0.8888900280503833  0.0986400023008045   F   F   F
  0.6666700244076367  0.6666700243644144  0.0000000000000000   F   F   F
  0.6733792069966338  0.6738432434206246  0.2913127818313593   T   T   T
  0.8913161985507739  0.7801054368049669  0.1962440689284536   T   T   T
  0.7777799964626126  0.8888900280503833  0.0986400023008045   F   F   F
  0.2084249250274116  0.0836208227922293  0.3616184137558913   T   T   T
 
  0.00000000E+00  0.00000000E+00  0.00000000E+00
  0.00000000E+00  0.00000000E+00  0.00000000E+00
  0.00000000E+00  0.00000000E+00  0.00000000E+00
  0.00000000E+00  0.00000000E+00  0.00000000E+00
  0.00000000E+00  0.00000000E+00  0.00000000E+00
  0.00000000E+00  0.00000000E+00  0.00000000E+00
  0.00000000E+00  0.00000000E+00  0.00000000E+00
  0.00000000E+00  0.00000000E+00  0.00000000E+00
  0.00000000E+00  0.00000000E+00  0.00000000E+00
  0.00000000E+00  0.00000000E+00  0.00000000E+00
  0.00000000E+00  0.00000000E+00  0.00000000E+00
  0.00000000E+00  0.00000000E+00  0.00000000E+00
  0.00000000E+00  0.00000000E+00  0.00000000E+00
  0.00000000E+00  0.00000000E+00  0.00000000E+00
  0.00000000E+00  0.00000000E+00  0.00000000E+00
  0.00000000E+00  0.00000000E+00  0.00000000E+00
  0.00000000E+00  0.00000000E+00  0.00000000E+00
  0.00000000E+00  0.00000000E+00  0.00000000E+00
  0.00000000E+00  0.00000000E+00  0.00000000E+00
  0.00000000E+00  0.00000000E+00  0.00000000E+00
  0.00000000E+00  0.00000000E+00  0.00000000E+00
  0.00000000E+00  0.00000000E+00  0.00000000E+00
  0.00000000E+00  0.00000000E+00  0.00000000E+00
  0.00000000E+00  0.00000000E+00  0.00000000E+00
  0.00000000E+00  0.00000000E+00  0.00000000E+00
  0.00000000E+00  0.00000000E+00  0.00000000E+00
  0.00000000E+00  0.00000000E+00  0.00000000E+00
  0.00000000E+00  0.00000000E+00  0.00000000E+00
  0.00000000E+00  0.00000000E+00  0.00000000E+00
  0.00000000E+00  0.00000000E+00  0.00000000E+00
  0.00000000E+00  0.00000000E+00  0.00000000E+00
  0.00000000E+00  0.00000000E+00  0.00000000E+00
  0.00000000E+00  0.00000000E+00  0.00000000E+00
  0.00000000E+00  0.00000000E+00  0.00000000E+00
  0.00000000E+00  0.00000000E+00  0.00000000E+00
  0.00000000E+00  0.00000000E+00  0.00000000E+00
  0.00000000E+00  0.00000000E+00  0.00000000E+00
