Cu Hf Cu O                              
   1.00000000000000     
     6.3046998978000000    0.0000000000000000    0.0000000000000000
     0.0000000000000000    7.7216000556999997    0.0000000000000000
     0.0000000000000000    0.0000000000000000   25.4022006988999998
   Cu   Hf   Cu   O 
    19     1    25     1
Selective dynamics
Direct
     0.0000000000000000    0.0000000000000000    0.0000000000000000   F   F   F
     0.3333299999999966    0.0000000000000000    0.1169999999999973   F   F   F
     0.6667846820408060    0.9972953415829287    0.2337896224438464   T   T   T
     0.9930173945183864    0.0024961482220225    0.3544183318906075   T   T   T
     0.6439653688483552    0.9926880010101850    0.4032695473104266   T   T   T
     0.6666700000000034    0.0000000000000000    0.0585000000000022   F   F   F
     0.0002987730274346    0.9988658792629065    0.1755125118383437   T   T   T
     0.3311059062620064    0.0002404827794281    0.2920779489431483   T   T   T
     0.3333299999999966    0.1666700000000034    0.0292499999999976   F   F   F
     0.6666700000000034    0.1666700000000034    0.1462500000000020   F   F   F
     0.0023351381118506    0.1648645330519809    0.2619611061950747   T   T   T
     0.3329444546855191    0.1712257721844812    0.3796256844403033   T   T   T
     0.0000000000000000    0.1666700000000034    0.0877499999999998   F   F   F
     0.3345875640070829    0.1650174783846414    0.2043383916900232   T   T   T
     0.6724175574326134    0.1655307005257478    0.3194603059551849   T   T   T
     0.0000000000000000    0.3333299999999966    0.0000000000000000   F   F   F
     0.3333299999999966    0.3333299999999966    0.1169999999999973   F   F   F
     0.6702549622243841    0.3336162249955354    0.2327912509275917   T   T   T
     0.0135026895921617    0.3338382414105979    0.3472963875448817   T   T   T
     0.7079084221572771    0.3363177284816136    0.4188569447148014   T   T   T
     0.6666700000000034    0.3333299999999966    0.0585000000000022   F   F   F
     0.0020140965277915    0.3329579688526272    0.1749401501303244   T   T   T
     0.3414908416870735    0.3320740612389865    0.2904560622651804   T   T   T
     0.3333299999999966    0.5000000000000000    0.0292499999999976   F   F   F
     0.6666700000000034    0.5000000000000000    0.1462500000000020   F   F   F
     0.0013240601782403    0.5007539762378422    0.2618923053892936   T   T   T
     0.3332989595302944    0.4982513862368762    0.3773646870458050   T   T   T
     0.0000000000000000    0.5000000000000000    0.0877499999999998   F   F   F
     0.3341334399846892    0.5001743841014837    0.2044146888920157   T   T   T
     0.6720903533224613    0.4979320683514276    0.3224078550598458   T   T   T
     0.0000000000000000    0.6666700000000034    0.0000000000000000   F   F   F
     0.3333299999999966    0.6666700000000034    0.1169999999999973   F   F   F
     0.6660489903811587    0.6657846186293829    0.2334955666702328   T   T   T
     0.9936097673609922    0.6642945697856133    0.3537012112102964   T   T   T
     0.6486487985168778    0.6812196624434012    0.4113501234817916   T   T   T
     0.6666700000000034    0.6666700000000034    0.0585000000000022   F   F   F
     0.9998255290607539    0.6673193708111613    0.1753331376257224   T   T   T
     0.3303579231344894    0.6652671139565527    0.2921923147817387   T   T   T
     0.3333299999999966    0.8333299999999966    0.0292499999999976   F   F   F
     0.6666700000000034    0.8333299999999966    0.1462500000000020   F   F   F
     0.9984747733658409    0.8328833564929609    0.2644087367766423   T   T   T
     0.3197469361530410    0.8332341662651349    0.3776304855021140   T   T   T
     0.0000000000000000    0.8333299999999966    0.0877499999999998   F   F   F
     0.3322760267034325    0.8323661487426386    0.2050456154424593   T   T   T
     0.6655319409896991    0.8259834064509967    0.3218401757205333   T   T   T
     0.6931246481791238    0.5118000041993868    0.4677776736237355   T   T   T
 
  0.00000000E+00  0.00000000E+00  0.00000000E+00
  0.00000000E+00  0.00000000E+00  0.00000000E+00
  0.00000000E+00  0.00000000E+00  0.00000000E+00
  0.00000000E+00  0.00000000E+00  0.00000000E+00
  0.00000000E+00  0.00000000E+00  0.00000000E+00
  0.00000000E+00  0.00000000E+00  0.00000000E+00
  0.00000000E+00  0.00000000E+00  0.00000000E+00
  0.00000000E+00  0.00000000E+00  0.00000000E+00
  0.00000000E+00  0.00000000E+00  0.00000000E+00
  0.00000000E+00  0.00000000E+00  0.00000000E+00
  0.00000000E+00  0.00000000E+00  0.00000000E+00
  0.00000000E+00  0.00000000E+00  0.00000000E+00
  0.00000000E+00  0.00000000E+00  0.00000000E+00
  0.00000000E+00  0.00000000E+00  0.00000000E+00
  0.00000000E+00  0.00000000E+00  0.00000000E+00
  0.00000000E+00  0.00000000E+00  0.00000000E+00
  0.00000000E+00  0.00000000E+00  0.00000000E+00
  0.00000000E+00  0.00000000E+00  0.00000000E+00
  0.00000000E+00  0.00000000E+00  0.00000000E+00
  0.00000000E+00  0.00000000E+00  0.00000000E+00
  0.00000000E+00  0.00000000E+00  0.00000000E+00
  0.00000000E+00  0.00000000E+00  0.00000000E+00
  0.00000000E+00  0.00000000E+00  0.00000000E+00
  0.00000000E+00  0.00000000E+00  0.00000000E+00
  0.00000000E+00  0.00000000E+00  0.00000000E+00
  0.00000000E+00  0.00000000E+00  0.00000000E+00
  0.00000000E+00  0.00000000E+00  0.00000000E+00
  0.00000000E+00  0.00000000E+00  0.00000000E+00
  0.00000000E+00  0.00000000E+00  0.00000000E+00
  0.00000000E+00  0.00000000E+00  0.00000000E+00
  0.00000000E+00  0.00000000E+00  0.00000000E+00
  0.00000000E+00  0.00000000E+00  0.00000000E+00
  0.00000000E+00  0.00000000E+00  0.00000000E+00
  0.00000000E+00  0.00000000E+00  0.00000000E+00
  0.00000000E+00  0.00000000E+00  0.00000000E+00
  0.00000000E+00  0.00000000E+00  0.00000000E+00
  0.00000000E+00  0.00000000E+00  0.00000000E+00
  0.00000000E+00  0.00000000E+00  0.00000000E+00
  0.00000000E+00  0.00000000E+00  0.00000000E+00
  0.00000000E+00  0.00000000E+00  0.00000000E+00
  0.00000000E+00  0.00000000E+00  0.00000000E+00
  0.00000000E+00  0.00000000E+00  0.00000000E+00
  0.00000000E+00  0.00000000E+00  0.00000000E+00
  0.00000000E+00  0.00000000E+00  0.00000000E+00
  0.00000000E+00  0.00000000E+00  0.00000000E+00
  0.00000000E+00  0.00000000E+00  0.00000000E+00
