Cu Mn Cu O                              
   1.00000000000000     
     7.7216000556999997    0.0000000000000000    0.0000000000000000
     0.0000000000000000    7.7216000556999997    0.0000000000000000
     0.0000000000000000    0.0000000000000000   20.4599990845000015
   Cu   Mn   Cu   O 
    17     1    18     1
Selective dynamics
Direct
     0.0000000000000000    0.0000000000000000    0.0889500007054593   F   F   F
     0.9880758336879650    0.9872284126170526    0.2639691428534328   T   T   T
     0.1666699946535033    0.1666699946535033    0.0000000000000000   F   F   F
     0.1657980644774318    0.1652644662194735    0.1755038998532829   T   T   T
     0.3333300053659229    0.0000000000000000    0.0889500007054593   F   F   F
     0.3240208972305111    0.0028286387537308    0.2680179460076432   T   T   T
     0.5000000000194262    0.1666699946535033    0.0000000000000000   F   F   F
     0.4957417716432159    0.1693564164981972    0.1787135799358354   T   T   T
     0.6666700243299957    0.0000000000000000    0.0889500007054593   F   F   F
     0.6614247187386884    0.0008124644104623    0.2643050233047959   T   T   T
     0.8333299755987795    0.1666699946535033    0.0000000000000000   F   F   F
     0.8339824627389705    0.1651842170951524    0.1788423036085494   T   T   T
     0.0000000000000000    0.3333300053659229    0.0889500007054593   F   F   F
     0.0040723936646337    0.3233030936441310    0.2680552601704446   T   T   T
     0.1666699946535033    0.5000000000194262    0.0000000000000000   F   F   F
     0.1698367831860152    0.4950332754975296    0.1789589862954099   T   T   T
     0.3333300053659229    0.3333300053659229    0.0889500007054593   F   F   F
     0.3446795174772355    0.3435530229199795    0.2651116554825800   T   T   T
     0.5000000000194262    0.5000000000194262    0.0000000000000000   F   F   F
     0.5034672651654956    0.5032953377171705    0.1759076526023614   T   T   T
     0.6666700243299957    0.3333300053659229    0.0889500007054593   F   F   F
     0.6683701300598036    0.3320817007449625    0.2644386498329755   T   T   T
     0.8333299755987795    0.5000000000194262    0.0000000000000000   F   F   F
     0.8370339997818449    0.4957754437110067    0.1792620718216834   T   T   T
     0.0000000000000000    0.6666700243299957    0.0889500007054593   F   F   F
     0.0002132528137142    0.6605555519117341    0.2642233040514905   T   T   T
     0.1666699946535033    0.8333299755987795    0.0000000000000000   F   F   F
     0.1655007785191548    0.8330341074951425    0.1789168494749843   T   T   T
     0.3333300053659229    0.6666700243299957    0.0889500007054593   F   F   F
     0.3320626190826751    0.6664458233044931    0.2645358243476444   T   T   T
     0.5000000000194262    0.8333299755987795    0.0000000000000000   F   F   F
     0.4957947201134855    0.8367370914871629    0.1794606353933137   T   T   T
     0.6666700243299957    0.6666700243299957    0.0889500007054593   F   F   F
     0.6628466823680766    0.6631465865439244    0.2645798729595593   T   T   T
     0.8333299755987795    0.8333299755987795    0.0000000000000000   F   F   F
     0.8293307058083043    0.8292282703243500    0.1777077070252423   T   T   T
     0.2242729741852523    0.2229835954433698    0.3167008705722500   T   T   T
 
  0.00000000E+00  0.00000000E+00  0.00000000E+00
  0.00000000E+00  0.00000000E+00  0.00000000E+00
  0.00000000E+00  0.00000000E+00  0.00000000E+00
  0.00000000E+00  0.00000000E+00  0.00000000E+00
  0.00000000E+00  0.00000000E+00  0.00000000E+00
  0.00000000E+00  0.00000000E+00  0.00000000E+00
  0.00000000E+00  0.00000000E+00  0.00000000E+00
  0.00000000E+00  0.00000000E+00  0.00000000E+00
  0.00000000E+00  0.00000000E+00  0.00000000E+00
  0.00000000E+00  0.00000000E+00  0.00000000E+00
  0.00000000E+00  0.00000000E+00  0.00000000E+00
  0.00000000E+00  0.00000000E+00  0.00000000E+00
  0.00000000E+00  0.00000000E+00  0.00000000E+00
  0.00000000E+00  0.00000000E+00  0.00000000E+00
  0.00000000E+00  0.00000000E+00  0.00000000E+00
  0.00000000E+00  0.00000000E+00  0.00000000E+00
  0.00000000E+00  0.00000000E+00  0.00000000E+00
  0.00000000E+00  0.00000000E+00  0.00000000E+00
  0.00000000E+00  0.00000000E+00  0.00000000E+00
  0.00000000E+00  0.00000000E+00  0.00000000E+00
  0.00000000E+00  0.00000000E+00  0.00000000E+00
  0.00000000E+00  0.00000000E+00  0.00000000E+00
  0.00000000E+00  0.00000000E+00  0.00000000E+00
  0.00000000E+00  0.00000000E+00  0.00000000E+00
  0.00000000E+00  0.00000000E+00  0.00000000E+00
  0.00000000E+00  0.00000000E+00  0.00000000E+00
  0.00000000E+00  0.00000000E+00  0.00000000E+00
  0.00000000E+00  0.00000000E+00  0.00000000E+00
  0.00000000E+00  0.00000000E+00  0.00000000E+00
  0.00000000E+00  0.00000000E+00  0.00000000E+00
  0.00000000E+00  0.00000000E+00  0.00000000E+00
  0.00000000E+00  0.00000000E+00  0.00000000E+00
  0.00000000E+00  0.00000000E+00  0.00000000E+00
  0.00000000E+00  0.00000000E+00  0.00000000E+00
  0.00000000E+00  0.00000000E+00  0.00000000E+00
  0.00000000E+00  0.00000000E+00  0.00000000E+00
  0.00000000E+00  0.00000000E+00  0.00000000E+00
