Au   V    Au   O    C    H              
   1.00000000000000     
     8.8458995818999995    0.0000000000000000    0.0000000000000000
    -4.4229497909999997    7.6607737573000003    0.0000000000000000
     0.0000000000000000    0.0000000000000000   22.2227001189999989
   Au   V    Au   O    C    H 
    17     1    18     1     1     4
Selective dynamics
Direct
  0.0000000000000000  0.0000000000000000  0.0000000000000000   F   F   F
  0.0076054119900958  0.0025202968583317  0.3323581242204774   T   T   T
  0.2241920045755382  0.1149835715839148  0.2209217034448011   T   T   T
  0.1111101863827386  0.2222203727629690  0.1083401201072576   F   F   F
  0.3333295808640244  0.0000000000000000  0.0000000000000000   F   F   F
  0.3345382142820790  0.0139653486600225  0.3317885003199505   T   T   T
  0.5557569042261813  0.1108882910964343  0.2176075150534614   T   T   T
  0.4444397672467701  0.2222203727629690  0.1083401201072576   F   F   F
  0.6666704664008094  0.0000000000000000  0.0000000000000000   F   F   F
  0.6677568440773157  0.9988413283843075  0.3281070075259026   T   T   T
  0.8902027704233354  0.1128487134618637  0.2181861853061174   T   T   T
  0.7777806527835551  0.2222203727629690  0.1083401201072576   F   F   F
  0.0000005364069366  0.3333305591444571  0.0000000000000000   F   F   F
  0.9798722877456956  0.3104862758166578  0.3295165747528702   T   T   T
  0.2256826684673183  0.4409020107685885  0.2257006471593280   T   T   T
  0.1111095919175682  0.5555600693656331  0.1083401201072576   F   F   F
  0.3333300700061272  0.3333305591444571  0.0000000000000000   F   F   F
  0.3289933494331967  0.3375102384318783  0.3341675846848683   T   T   T
  0.5515000312934742  0.4423751666640121  0.2209067120317576   T   T   T
  0.4444403032488680  0.5555600693656331  0.1083401201072576   F   F   F
  0.6666698250756369  0.3333305591444571  0.0000000000000000   F   F   F
  0.6530571828755842  0.3324781100735654  0.3316794669678634   T   T   T
  0.8897718404496086  0.4453448070631563  0.2191606740927875   T   T   T
  0.7777800583183776  0.5555600693656331  0.1083401201072576   F   F   F
  0.9999998946769253  0.6666702557471211  0.0000000000000000   F   F   F
  0.9960810059706863  0.6708883294087107  0.3303458360558510   T   T   T
  0.2213205547320070  0.7768668244040992  0.2191816110680771   T   T   T
  0.1111100810596639  0.8888906285100902  0.1083401201072576   F   F   F
  0.3333306060082251  0.6666702557471211  0.0000000000000000   F   F   F
  0.3561180104743646  0.6866696067923109  0.3295141271225727   T   T   T
  0.5537455531705081  0.7764031446596854  0.2181771010808881   T   T   T
  0.4444407923909637  0.8888906285100902  0.1083401201072576   F   F   F
  0.6666703610777347  0.6666702557471211  0.0000000000000000   F   F   F
  0.6642552640651092  0.6592041101850922  0.3323130711355844   T   T   T
  0.8898711903211680  0.7766788787890490  0.2180740827962117   T   T   T
  0.7777805474604733  0.8888906285100902  0.1083401201072576   F   F   F
  0.1529379069064232  0.5136161104685210  0.3921963993336463   T   T   T
  0.3105831964360933  0.3555907589002413  0.4359700522889918   T   T   T
  0.3790467563501841  0.2870980890414210  0.4184285290560242   T   T   T
  0.4065876395551786  0.4628393837939854  0.4635666224312443   T   T   T
  0.2031397506041028  0.2594408356500171  0.4635081047660995   T   T   T
  0.2369109626221666  0.4294836253975992  0.4101269011319130   T   T   T
 
  0.00000000E+00  0.00000000E+00  0.00000000E+00
  0.00000000E+00  0.00000000E+00  0.00000000E+00
  0.00000000E+00  0.00000000E+00  0.00000000E+00
  0.00000000E+00  0.00000000E+00  0.00000000E+00
  0.00000000E+00  0.00000000E+00  0.00000000E+00
  0.00000000E+00  0.00000000E+00  0.00000000E+00
  0.00000000E+00  0.00000000E+00  0.00000000E+00
  0.00000000E+00  0.00000000E+00  0.00000000E+00
  0.00000000E+00  0.00000000E+00  0.00000000E+00
  0.00000000E+00  0.00000000E+00  0.00000000E+00
  0.00000000E+00  0.00000000E+00  0.00000000E+00
  0.00000000E+00  0.00000000E+00  0.00000000E+00
  0.00000000E+00  0.00000000E+00  0.00000000E+00
  0.00000000E+00  0.00000000E+00  0.00000000E+00
  0.00000000E+00  0.00000000E+00  0.00000000E+00
  0.00000000E+00  0.00000000E+00  0.00000000E+00
  0.00000000E+00  0.00000000E+00  0.00000000E+00
  0.00000000E+00  0.00000000E+00  0.00000000E+00
  0.00000000E+00  0.00000000E+00  0.00000000E+00
  0.00000000E+00  0.00000000E+00  0.00000000E+00
  0.00000000E+00  0.00000000E+00  0.00000000E+00
  0.00000000E+00  0.00000000E+00  0.00000000E+00
  0.00000000E+00  0.00000000E+00  0.00000000E+00
  0.00000000E+00  0.00000000E+00  0.00000000E+00
  0.00000000E+00  0.00000000E+00  0.00000000E+00
  0.00000000E+00  0.00000000E+00  0.00000000E+00
  0.00000000E+00  0.00000000E+00  0.00000000E+00
  0.00000000E+00  0.00000000E+00  0.00000000E+00
  0.00000000E+00  0.00000000E+00  0.00000000E+00
  0.00000000E+00  0.00000000E+00  0.00000000E+00
  0.00000000E+00  0.00000000E+00  0.00000000E+00
  0.00000000E+00  0.00000000E+00  0.00000000E+00
  0.00000000E+00  0.00000000E+00  0.00000000E+00
  0.00000000E+00  0.00000000E+00  0.00000000E+00
  0.00000000E+00  0.00000000E+00  0.00000000E+00
  0.00000000E+00  0.00000000E+00  0.00000000E+00
  0.00000000E+00  0.00000000E+00  0.00000000E+00
  0.00000000E+00  0.00000000E+00  0.00000000E+00
  0.00000000E+00  0.00000000E+00  0.00000000E+00
  0.00000000E+00  0.00000000E+00  0.00000000E+00
  0.00000000E+00  0.00000000E+00  0.00000000E+00
  0.00000000E+00  0.00000000E+00  0.00000000E+00
