Cu Pd Cu                                
   1.00000000000000     
     7.7216000556999997    0.0000000000000000    0.0000000000000000
    -3.8608000277999999    6.6871018061000003    0.0000000000000000
     0.0000000000000000    0.0000000000000000   21.3047008513999998
   Cu   Pd   Cu
    17     1    18
Selective dynamics
Direct
  0.0000000000000000  0.0000000000000000  0.0000000000000000   F   F   F
  0.9952736738169981 -0.0048248230368422  0.2978659518720488   T   T   T
  0.2222053760829864  0.1108583315815365  0.1980376786724841   T   T   T
  0.1111100017667752  0.2222200035364281  0.0986400023008045   F   F   F
  0.3333300053659229  0.0000000000000000  0.0000000000000000   F   F   F
  0.3331837469565568  0.9949695123390391  0.2976219779869463   T   T   T
  0.5554541493448937  0.1109863784980842  0.1983731885434445   T   T   T
  0.4444400071326982  0.2222200035364281  0.0986400023008045   F   F   F
  0.6666700243299957  0.0000000000000000  0.0000000000000000   F   F   F
  0.6669534894450018  0.0001202977420120  0.2973860491719129   T   T   T
  0.8893684465526621  0.1110329754745605  0.1982899424697892   T   T   T
  0.7777799963101941  0.2222200035364281  0.0986400023008045   F   F   F
  0.0000000000045830  0.3333300053794161  0.0000000000000000   F   F   F
 -0.0049263176174722  0.3335301782453990  0.2976032830614992   T   T   T
  0.2219846385930259  0.4445833043503175  0.1980188156929796   T   T   T
  0.1111100017242208  0.5555599927626460  0.0986400023008045   F   F   F
  0.3333300053705130  0.3333300053794161  0.0000000000000000   F   F   F
  0.3332687772234686  0.3333498007339207  0.3020725083455653   T   T   T
  0.5559240939914951  0.4449655058326364  0.1980096685235991   T   T   T
  0.4444400072196544  0.5555599927626460  0.0986400023008045   F   F   F
  0.6666700243345787  0.3333300053794161  0.0000000000000000   F   F   F
  0.6711345994766468  0.3334854589857602  0.2975777315397011   T   T   T
  0.8892181069367198  0.4445274722424022  0.1977970869214264   T   T   T
  0.7777799963971503  0.5555599927626460  0.0986400023008045   F   F   F
  0.9999999999481375  0.6666700243644144  0.0000000000000000   F   F   F
 -0.0000399593296111  0.6668953766777630  0.2973215628782898   T   T   T
  0.2224399304391193  0.7780537248786173  0.1977805190030555   T   T   T
  0.1111100017896831  0.8888900280503833  0.0986400023008045   F   F   F
  0.3333300054435711  0.6666700243644144  0.0000000000000000   F   F   F
  0.3331453709915554  0.6710351770114363  0.2976061626102739   T   T   T
  0.5557825669826253  0.7777535536053620  0.1984291316257912   T   T   T
  0.4444400072851167  0.8888900280503833  0.0986400023008045   F   F   F
  0.6666700244076367  0.6666700243644144  0.0000000000000000   F   F   F
  0.6709427674418621  0.6706849730508272  0.2979394984369217   T   T   T
  0.8889842668578117  0.7782336432409013  0.1977810713694262   T   T   T
  0.7777799964626126  0.8888900280503833  0.0986400023008045   F   F   F
 
  0.00000000E+00  0.00000000E+00  0.00000000E+00
  0.00000000E+00  0.00000000E+00  0.00000000E+00
  0.00000000E+00  0.00000000E+00  0.00000000E+00
  0.00000000E+00  0.00000000E+00  0.00000000E+00
  0.00000000E+00  0.00000000E+00  0.00000000E+00
  0.00000000E+00  0.00000000E+00  0.00000000E+00
  0.00000000E+00  0.00000000E+00  0.00000000E+00
  0.00000000E+00  0.00000000E+00  0.00000000E+00
  0.00000000E+00  0.00000000E+00  0.00000000E+00
  0.00000000E+00  0.00000000E+00  0.00000000E+00
  0.00000000E+00  0.00000000E+00  0.00000000E+00
  0.00000000E+00  0.00000000E+00  0.00000000E+00
  0.00000000E+00  0.00000000E+00  0.00000000E+00
  0.00000000E+00  0.00000000E+00  0.00000000E+00
  0.00000000E+00  0.00000000E+00  0.00000000E+00
  0.00000000E+00  0.00000000E+00  0.00000000E+00
  0.00000000E+00  0.00000000E+00  0.00000000E+00
  0.00000000E+00  0.00000000E+00  0.00000000E+00
  0.00000000E+00  0.00000000E+00  0.00000000E+00
  0.00000000E+00  0.00000000E+00  0.00000000E+00
  0.00000000E+00  0.00000000E+00  0.00000000E+00
  0.00000000E+00  0.00000000E+00  0.00000000E+00
  0.00000000E+00  0.00000000E+00  0.00000000E+00
  0.00000000E+00  0.00000000E+00  0.00000000E+00
  0.00000000E+00  0.00000000E+00  0.00000000E+00
  0.00000000E+00  0.00000000E+00  0.00000000E+00
  0.00000000E+00  0.00000000E+00  0.00000000E+00
  0.00000000E+00  0.00000000E+00  0.00000000E+00
  0.00000000E+00  0.00000000E+00  0.00000000E+00
  0.00000000E+00  0.00000000E+00  0.00000000E+00
  0.00000000E+00  0.00000000E+00  0.00000000E+00
  0.00000000E+00  0.00000000E+00  0.00000000E+00
  0.00000000E+00  0.00000000E+00  0.00000000E+00
  0.00000000E+00  0.00000000E+00  0.00000000E+00
  0.00000000E+00  0.00000000E+00  0.00000000E+00
  0.00000000E+00  0.00000000E+00  0.00000000E+00
