Cu In Cu O  C  H                        
   1.00000000000000     
     7.7216000556999997    0.0000000000000000    0.0000000000000000
     0.0000000000000000    7.7216000556999997    0.0000000000000000
     0.0000000000000000    0.0000000000000000   20.4599990845000015
   Cu   In   Cu   O    C    H 
    17     1    18     1     1     4
Selective dynamics
Direct
     0.0000000000000000    0.0000000000000000    0.0889500007054593   F   F   F
     0.0001084676475421    0.0000545760981696    0.2688960458188686   T   T   T
     0.1666699946535033    0.1666699946535033    0.0000000000000000   F   F   F
     0.1645111297495322    0.1645113495432016    0.1807955590243492   T   T   T
     0.3333300053659229    0.0000000000000000    0.0889500007054593   F   F   F
     0.3349750088782201    0.9841399767539772    0.2662074953683332   T   T   T
     0.5000000000194262    0.1666699946535033    0.0000000000000000   F   F   F
     0.4936681958053060    0.1714759966794493    0.1817145848120488   T   T   T
     0.6666700243299957    0.0000000000000000    0.0889500007054593   F   F   F
     0.6663988624367988    0.0090894702617393    0.2677473470668773   T   T   T
     0.8333299755987795    0.1666699946535033    0.0000000000000000   F   F   F
     0.8282324687322128    0.1694742761019399    0.1794421324766182   T   T   T
     0.0000000000000000    0.3333300053659229    0.0889500007054593   F   F   F
     0.9840693689311378    0.3349746763194855    0.2662206870879349   T   T   T
     0.1666699946535033    0.5000000000194262    0.0000000000000000   F   F   F
     0.1714596825663345    0.4936632665707773    0.1817195096841626   T   T   T
     0.3333300053659229    0.3333300053659229    0.0889500007054593   F   F   F
     0.3034305775008642    0.3035814934983912    0.3135400003018063   T   T   T
     0.5000000000194262    0.5000000000194262    0.0000000000000000   F   F   F
     0.5004030822276210    0.5003975616154348    0.1775765447628842   T   T   T
     0.6666700243299957    0.3333300053659229    0.0889500007054593   F   F   F
     0.6613344237537111    0.3351070989984539    0.2694811139745467   T   T   T
     0.8333299755987795    0.5000000000194262    0.0000000000000000   F   F   F
     0.8314703397687913    0.5034509545317193    0.1789366541195148   T   T   T
     0.0000000000000000    0.6666700243299957    0.0889500007054593   F   F   F
     0.0090973925595404    0.6663832900585676    0.2677481846604887   T   T   T
     0.1666699946535033    0.8333299755987795    0.0000000000000000   F   F   F
     0.1694621812197190    0.8282337399142657    0.1794366105469558   T   T   T
     0.3333300053659229    0.6666700243299957    0.0889500007054593   F   F   F
     0.3350920183977102    0.6613943317266663    0.2694802383161825   T   T   T
     0.5000000000194262    0.8333299755987795    0.0000000000000000   F   F   F
     0.5034361356814405    0.8314722257340272    0.1789394010247223   T   T   T
     0.6666700243299957    0.6666700243299957    0.0889500007054593   F   F   F
     0.6818416678780231    0.6818618173783606    0.2692975741914448   T   T   T
     0.8333299755987795    0.8333299755987795    0.0000000000000000   F   F   F
     0.8348929446309916    0.8349043142809153    0.1799632803802808   T   T   T
     0.5344751746477917    0.5344485708584044    0.3327734209855939   T   T   T
     0.2960572755016105    0.2960311944400427    0.4227104124348518   T   T   T
     0.2004828216032025    0.2004471316959369    0.4382440766848814   T   T   T
     0.4244822224022953    0.2601105986633359    0.4405114168732118   T   T   T
     0.2601269314113429    0.4244496481668606    0.4405272922615405   T   T   T
     0.5529194494555011    0.5528599839164433    0.3792875293051754   T   T   T
 
  0.00000000E+00  0.00000000E+00  0.00000000E+00
  0.00000000E+00  0.00000000E+00  0.00000000E+00
  0.00000000E+00  0.00000000E+00  0.00000000E+00
  0.00000000E+00  0.00000000E+00  0.00000000E+00
  0.00000000E+00  0.00000000E+00  0.00000000E+00
  0.00000000E+00  0.00000000E+00  0.00000000E+00
  0.00000000E+00  0.00000000E+00  0.00000000E+00
  0.00000000E+00  0.00000000E+00  0.00000000E+00
  0.00000000E+00  0.00000000E+00  0.00000000E+00
  0.00000000E+00  0.00000000E+00  0.00000000E+00
  0.00000000E+00  0.00000000E+00  0.00000000E+00
  0.00000000E+00  0.00000000E+00  0.00000000E+00
  0.00000000E+00  0.00000000E+00  0.00000000E+00
  0.00000000E+00  0.00000000E+00  0.00000000E+00
  0.00000000E+00  0.00000000E+00  0.00000000E+00
  0.00000000E+00  0.00000000E+00  0.00000000E+00
  0.00000000E+00  0.00000000E+00  0.00000000E+00
  0.00000000E+00  0.00000000E+00  0.00000000E+00
  0.00000000E+00  0.00000000E+00  0.00000000E+00
  0.00000000E+00  0.00000000E+00  0.00000000E+00
  0.00000000E+00  0.00000000E+00  0.00000000E+00
  0.00000000E+00  0.00000000E+00  0.00000000E+00
  0.00000000E+00  0.00000000E+00  0.00000000E+00
  0.00000000E+00  0.00000000E+00  0.00000000E+00
  0.00000000E+00  0.00000000E+00  0.00000000E+00
  0.00000000E+00  0.00000000E+00  0.00000000E+00
  0.00000000E+00  0.00000000E+00  0.00000000E+00
  0.00000000E+00  0.00000000E+00  0.00000000E+00
  0.00000000E+00  0.00000000E+00  0.00000000E+00
  0.00000000E+00  0.00000000E+00  0.00000000E+00
  0.00000000E+00  0.00000000E+00  0.00000000E+00
  0.00000000E+00  0.00000000E+00  0.00000000E+00
  0.00000000E+00  0.00000000E+00  0.00000000E+00
  0.00000000E+00  0.00000000E+00  0.00000000E+00
  0.00000000E+00  0.00000000E+00  0.00000000E+00
  0.00000000E+00  0.00000000E+00  0.00000000E+00
  0.00000000E+00  0.00000000E+00  0.00000000E+00
  0.00000000E+00  0.00000000E+00  0.00000000E+00
  0.00000000E+00  0.00000000E+00  0.00000000E+00
  0.00000000E+00  0.00000000E+00  0.00000000E+00
  0.00000000E+00  0.00000000E+00  0.00000000E+00
  0.00000000E+00  0.00000000E+00  0.00000000E+00
