Au Ge Au O  C  H                        
   1.00000000000000     
     8.8458995818999995    0.0000000000000000    0.0000000000000000
     0.0000000000000000    8.8458995818999995    0.0000000000000000
     0.0000000000000000    0.0000000000000000   21.2549991608000006
   Au   Ge   Au   O    C    H 
    17     1    18     1     1     4
Selective dynamics
Direct
     0.0000000000000000    0.0000000000000000    0.0980900004383471   F   F   F
     0.9994277768332681    0.0119475553219967    0.2972960417899552   T   T   T
     0.1666699945381183    0.1666699945381183    0.0000000000000000   F   F   F
     0.1697781996354926    0.1672739988115937    0.1991928855696120   T   T   T
     0.3333300053544903    0.0000000000000000    0.0980900004383471   F   F   F
     0.3338691181258579    0.9784800919013175    0.2982878110645984   T   T   T
     0.5000000000056559    0.1666699945381183    0.0000000000000000   F   F   F
     0.4972294318671587    0.1668861523792551    0.1989106923946056   T   T   T
     0.6666700243881039    0.0000000000000000    0.0980900004383471   F   F   F
     0.6662047247598880    0.0114161523875549    0.2978207916110380   T   T   T
     0.8333299756288497    0.1666699945381183    0.0000000000000000   F   F   F
     0.8333438465392928    0.1774948505966689    0.2026959320294805   T   T   T
     0.0000000000000000    0.3333300053544903    0.0980900004383471   F   F   F
     0.0817409632566274    0.3475420876728579    0.3075205219735627   T   T   T
     0.1666699945381183    0.5000000000056559    0.0000000000000000   F   F   F
     0.1660982409696396    0.5021213471273414    0.1950912592238064   T   T   T
     0.3333300053544903    0.3333300053544903    0.0980900004383471   F   F   F
     0.3264413567046364    0.3366054702201696    0.3716792828450188   T   T   T
     0.5000000000056559    0.5000000000056559    0.0000000000000000   F   F   F
     0.5024213949712061    0.5010694686280203    0.1956950263756481   T   T   T
     0.6666700243881039    0.3333300053544903    0.0980900004383471   F   F   F
     0.5761205245303924    0.3430116955495619    0.3092901025502519   T   T   T
     0.8333299756288497    0.5000000000056559    0.0000000000000000   F   F   F
     0.8347491665476903    0.4933596585266192    0.2082195202740725   T   T   T
     0.0000000000000000    0.6666700243881039    0.0980900004383471   F   F   F
     0.0014316355025251    0.6731911487892617    0.2998318396586074   T   T   T
     0.1666699945381183    0.8333299756288497    0.0000000000000000   F   F   F
     0.1661090394261082    0.8334753606335084    0.1991469555125712   T   T   T
     0.3333300053544903    0.6666700243881039    0.0980900004383471   F   F   F
     0.3336852732127477    0.6505391129207988    0.2975165040061997   T   T   T
     0.5000000000056559    0.8333299756288497    0.0000000000000000   F   F   F
     0.5003857678411129    0.8330137618513643    0.1993082202469466   T   T   T
     0.6666700243881039    0.6666700243881039    0.0980900004383471   F   F   F
     0.6650227941682619    0.6697804840491141    0.2999364156035331   T   T   T
     0.8333299756288497    0.8333299756288497    0.0000000000000000   F   F   F
     0.8329578754391962    0.8345884437969762    0.1987424393657878   T   T   T
     0.3118621620413358    0.1312533657746532    0.3967825841443104   T   T   T
     0.3403333295332145    0.4414689803083192    0.4548253250101531   T   T   T
     0.3501731802925189    0.5634213480822807    0.4477097991873812   T   T   T
     0.2385319985702462    0.4161228839870514    0.4820359518308130   T   T   T
     0.4399862298885088    0.4001651482982110    0.4799344657596653   T   T   T
     0.3802770102765747    0.1046546555906034    0.4307508951372745   T   T   T
 
  0.00000000E+00  0.00000000E+00  0.00000000E+00
  0.00000000E+00  0.00000000E+00  0.00000000E+00
  0.00000000E+00  0.00000000E+00  0.00000000E+00
  0.00000000E+00  0.00000000E+00  0.00000000E+00
  0.00000000E+00  0.00000000E+00  0.00000000E+00
  0.00000000E+00  0.00000000E+00  0.00000000E+00
  0.00000000E+00  0.00000000E+00  0.00000000E+00
  0.00000000E+00  0.00000000E+00  0.00000000E+00
  0.00000000E+00  0.00000000E+00  0.00000000E+00
  0.00000000E+00  0.00000000E+00  0.00000000E+00
  0.00000000E+00  0.00000000E+00  0.00000000E+00
  0.00000000E+00  0.00000000E+00  0.00000000E+00
  0.00000000E+00  0.00000000E+00  0.00000000E+00
  0.00000000E+00  0.00000000E+00  0.00000000E+00
  0.00000000E+00  0.00000000E+00  0.00000000E+00
  0.00000000E+00  0.00000000E+00  0.00000000E+00
  0.00000000E+00  0.00000000E+00  0.00000000E+00
  0.00000000E+00  0.00000000E+00  0.00000000E+00
  0.00000000E+00  0.00000000E+00  0.00000000E+00
  0.00000000E+00  0.00000000E+00  0.00000000E+00
  0.00000000E+00  0.00000000E+00  0.00000000E+00
  0.00000000E+00  0.00000000E+00  0.00000000E+00
  0.00000000E+00  0.00000000E+00  0.00000000E+00
  0.00000000E+00  0.00000000E+00  0.00000000E+00
  0.00000000E+00  0.00000000E+00  0.00000000E+00
  0.00000000E+00  0.00000000E+00  0.00000000E+00
  0.00000000E+00  0.00000000E+00  0.00000000E+00
  0.00000000E+00  0.00000000E+00  0.00000000E+00
  0.00000000E+00  0.00000000E+00  0.00000000E+00
  0.00000000E+00  0.00000000E+00  0.00000000E+00
  0.00000000E+00  0.00000000E+00  0.00000000E+00
  0.00000000E+00  0.00000000E+00  0.00000000E+00
  0.00000000E+00  0.00000000E+00  0.00000000E+00
  0.00000000E+00  0.00000000E+00  0.00000000E+00
  0.00000000E+00  0.00000000E+00  0.00000000E+00
  0.00000000E+00  0.00000000E+00  0.00000000E+00
  0.00000000E+00  0.00000000E+00  0.00000000E+00
  0.00000000E+00  0.00000000E+00  0.00000000E+00
  0.00000000E+00  0.00000000E+00  0.00000000E+00
  0.00000000E+00  0.00000000E+00  0.00000000E+00
  0.00000000E+00  0.00000000E+00  0.00000000E+00
  0.00000000E+00  0.00000000E+00  0.00000000E+00
