Au   Co   Au   O    C    H              
   1.00000000000000     
     8.8458995818999995    0.0000000000000000    0.0000000000000000
    -4.4229497909999997    7.6607737573000003    0.0000000000000000
     0.0000000000000000    0.0000000000000000   22.2227001189999989
   Au   Co   Au   O    C    H 
    17     1    18     1     1     4
Selective dynamics
Direct
  0.0000000000000000  0.0000000000000000  0.0000000000000000   F   F   F
  0.9981263129397737  0.0058956615690697  0.3299463344239094   T   T   T
  0.2200703118363145  0.1189032338415841  0.2202624099534381   T   T   T
  0.1111101863827386  0.2222203727629690  0.1083401201072576   F   F   F
  0.3333295808640244  0.0000000000000000  0.0000000000000000   F   F   F
  0.3280270227855041  0.0164622912023251  0.3287762087920778   T   T   T
  0.5517889582211590  0.1148997762816477  0.2168690040558491   T   T   T
  0.4444397672467701  0.2222203727629690  0.1083401201072576   F   F   F
  0.6666704664008094  0.0000000000000000  0.0000000000000000   F   F   F
  0.6608161654528498  0.0063417673667749  0.3266694142736509   T   T   T
  0.8875523489910293  0.1169457586721591  0.2179933997032723   T   T   T
  0.7777806527835551  0.2222203727629690  0.1083401201072576   F   F   F
  0.0000004891421028  0.3333305591444571  0.0000000000000000   F   F   F
  0.9752028912291327  0.3196648472019835  0.3299017616003380   T   T   T
  0.2218144182884918  0.4454344540999533  0.2252207830914175   T   T   T
  0.1111095919175682  0.5555600693656331  0.1083401201072576   F   F   F
  0.3333300700061272  0.3333305591444571  0.0000000000000000   F   F   F
  0.3257858934635502  0.3389303314315556  0.3386749598189606   T   T   T
  0.5474737500796816  0.4460777997608244  0.2203990712523145   T   T   T
  0.4444403032488680  0.5555600693656331  0.1083401201072576   F   F   F
  0.6666698250756369  0.3333305591444571  0.0000000000000000   F   F   F
  0.6527114929685899  0.3396842070711912  0.3287791843104791   T   T   T
  0.8873682990775639  0.4480814517085179  0.2182785859688890   T   T   T
  0.7777800583183776  0.5555600693656331  0.1083401201072576   F   F   F
  0.9999999419417591  0.6666702557471211  0.0000000000000000   F   F   F
  0.9915721403985618  0.6754423492235166  0.3273113683941644   T   T   T
  0.2187980132743685  0.7799229878412964  0.2182522327256674   T   T   T
  0.1111100810596639  0.8888906285100902  0.1083401201072576   F   F   F
  0.3333306060082251  0.6666702557471211  0.0000000000000000   F   F   F
  0.3465410307847588  0.6935433182801194  0.3300354972927818   T   T   T
  0.5499766163652912  0.7793059430823450  0.2181035324616271   T   T   T
  0.4444407923909637  0.8888906285100902  0.1083401201072576   F   F   F
  0.6666703610777347  0.6666702557471211  0.0000000000000000   F   F   F
  0.6586039120912899  0.6667705805158387  0.3301496918189986   T   T   T
  0.8853898093632857  0.7804474303928105  0.2169442844355217   T   T   T
  0.7777805474604733  0.8888906285100902  0.1083401201072576   F   F   F
  0.1747784050979189  0.4928393975032538  0.3923329625544539   T   T   T
  0.3269892337988594  0.3395509428103789  0.4411529373179103   T   T   T
  0.3983507357091021  0.2725658148899350  0.4289904998082460   T   T   T
  0.4140813873179102  0.4546729727533241  0.4676633557628482   T   T   T
  0.2121177479124927  0.2490590402507624  0.4671515013014553   T   T   T
  0.2535033287686449  0.4134259913963407  0.4109108843932575   T   T   T
 
  0.00000000E+00  0.00000000E+00  0.00000000E+00
  0.00000000E+00  0.00000000E+00  0.00000000E+00
  0.00000000E+00  0.00000000E+00  0.00000000E+00
  0.00000000E+00  0.00000000E+00  0.00000000E+00
  0.00000000E+00  0.00000000E+00  0.00000000E+00
  0.00000000E+00  0.00000000E+00  0.00000000E+00
  0.00000000E+00  0.00000000E+00  0.00000000E+00
  0.00000000E+00  0.00000000E+00  0.00000000E+00
  0.00000000E+00  0.00000000E+00  0.00000000E+00
  0.00000000E+00  0.00000000E+00  0.00000000E+00
  0.00000000E+00  0.00000000E+00  0.00000000E+00
  0.00000000E+00  0.00000000E+00  0.00000000E+00
  0.00000000E+00  0.00000000E+00  0.00000000E+00
  0.00000000E+00  0.00000000E+00  0.00000000E+00
  0.00000000E+00  0.00000000E+00  0.00000000E+00
  0.00000000E+00  0.00000000E+00  0.00000000E+00
  0.00000000E+00  0.00000000E+00  0.00000000E+00
  0.00000000E+00  0.00000000E+00  0.00000000E+00
  0.00000000E+00  0.00000000E+00  0.00000000E+00
  0.00000000E+00  0.00000000E+00  0.00000000E+00
  0.00000000E+00  0.00000000E+00  0.00000000E+00
  0.00000000E+00  0.00000000E+00  0.00000000E+00
  0.00000000E+00  0.00000000E+00  0.00000000E+00
  0.00000000E+00  0.00000000E+00  0.00000000E+00
  0.00000000E+00  0.00000000E+00  0.00000000E+00
  0.00000000E+00  0.00000000E+00  0.00000000E+00
  0.00000000E+00  0.00000000E+00  0.00000000E+00
  0.00000000E+00  0.00000000E+00  0.00000000E+00
  0.00000000E+00  0.00000000E+00  0.00000000E+00
  0.00000000E+00  0.00000000E+00  0.00000000E+00
  0.00000000E+00  0.00000000E+00  0.00000000E+00
  0.00000000E+00  0.00000000E+00  0.00000000E+00
  0.00000000E+00  0.00000000E+00  0.00000000E+00
  0.00000000E+00  0.00000000E+00  0.00000000E+00
  0.00000000E+00  0.00000000E+00  0.00000000E+00
  0.00000000E+00  0.00000000E+00  0.00000000E+00
  0.00000000E+00  0.00000000E+00  0.00000000E+00
  0.00000000E+00  0.00000000E+00  0.00000000E+00
  0.00000000E+00  0.00000000E+00  0.00000000E+00
  0.00000000E+00  0.00000000E+00  0.00000000E+00
  0.00000000E+00  0.00000000E+00  0.00000000E+00
  0.00000000E+00  0.00000000E+00  0.00000000E+00
