Ag  C  H  O                             
   1.00000000000000     
     7.2052998542999998    0.0000000000000000    0.0000000000000000
     0.0000000000000000    8.8247003554999992    0.0000000000000000
     0.0000000000000000    0.0000000000000000   26.8882007598999984
   Ag   C    H    O 
    45     1     4     1
Selective dynamics
Direct
  0.9566999999999979  0.0239600000000024  0.0000000000000000   F   F   F
  0.2900300000000016  0.0239600000000024  0.1263199999999998   F   F   F
  0.6258067673029335  0.0240946805786440  0.2551028479762189   T   T   T
  0.9702983518545890  0.0240477522482544  0.3864673935448688   T   T   T
  0.6233599999999981  0.0239600000000024  0.0631600000000034   F   F   F
  0.9579617254704148  0.0241837338841694  0.1911706015579572   T   T   T
  0.2960092706461288  0.0243037245340143  0.3196260076035007   T   T   T
  0.6352663013757299  0.0300774159390062  0.4496970562477315   T   T   T
  0.2900300000000016  0.1906200000000027  0.0315799999999982   F   F   F
  0.6233599999999981  0.1906200000000027  0.1579100000000011   F   F   F
  0.9613070973512032  0.1912797198199790  0.2873772480639860   T   T   T
  0.3010115421100955  0.1913825588262024  0.4147180925027836   T   T   T
  0.9566999999999979  0.1906200000000027  0.0947400000000016   F   F   F
  0.2919429064417193  0.1903416330035530  0.2229297387692669   T   T   T
  0.6355651943154162  0.1922082544331112  0.3511970666181262   T   T   T
  0.9566999999999979  0.3572899999999990  0.0000000000000000   F   F   F
  0.2900300000000016  0.3572899999999990  0.1263199999999998   F   F   F
  0.6258071170047413  0.3575460523477675  0.2543224730393794   T   T   T
  0.9701750409153559  0.3563196222281833  0.3853500935616048   T   T   T
  0.6233599999999981  0.3572899999999990  0.0631600000000034   F   F   F
  0.9581784554959653  0.3574350519113367  0.1908403175488952   T   T   T
  0.2956852379930069  0.3579585997376089  0.3195336938130457   T   T   T
  0.6272122442542710  0.3473594922336224  0.4499626694338366   T   T   T
  0.2900300000000016  0.5239600000000024  0.0315799999999982   F   F   F
  0.6233599999999981  0.5239600000000024  0.1579100000000011   F   F   F
  0.9592640608567289  0.5248637293758189  0.2877308110866358   T   T   T
  0.3081433771875481  0.5249709834163030  0.4156422898612276   T   T   T
  0.9566999999999979  0.5239600000000024  0.0947400000000016   F   F   F
  0.2916094512970644  0.5239902837976029  0.2230518393656634   T   T   T
  0.6318560749396751  0.5232160694177009  0.3517582145155809   T   T   T
  0.9566999999999979  0.6906200000000027  0.0000000000000000   F   F   F
  0.2900300000000016  0.6906200000000027  0.1263199999999998   F   F   F
  0.6258600113107327  0.6912632150008545  0.2554902185687060   T   T   T
  0.9726808680583496  0.6955182512658945  0.3851968006064818   T   T   T
  0.6233599999999981  0.6906200000000027  0.0631600000000034   F   F   F
  0.9577886774013566  0.6899758470646530  0.1906056755468749   T   T   T
  0.2960164594010605  0.6915978868904300  0.3191122981019686   T   T   T
  0.6302925491285872  0.6995548571520694  0.4482159183960526   T   T   T
  0.2900300000000016  0.8572899999999990  0.0315799999999982   F   F   F
  0.6233599999999981  0.8572899999999990  0.1579100000000011   F   F   F
  0.9602090874371670  0.8566707194888925  0.2872087708737267   T   T   T
  0.3051716779750581  0.8586146209450745  0.4164194377976226   T   T   T
  0.9566999999999979  0.8572899999999990  0.0947400000000016   F   F   F
  0.2918083923832473  0.8579473885301178  0.2228418791719666   T   T   T
  0.6357141622674862  0.8608869350561342  0.3535589343141877   T   T   T
  0.6217394803331402  0.1706655223917483  0.5237087154323972   T   T   T
  0.7535983820776970  0.1298877710986972  0.5385489228342822   T   T   T
  0.6028569278265460  0.2883076955733172  0.5359043372751028   T   T   T
  0.5055559547587066  0.1051023411391203  0.5383730415148077   T   T   T
  0.9508025843565885  0.5246158476761618  0.4899270132385680   T   T   T
  0.8795474799693759  0.5263560197220520  0.4592272399230747   T   T   T
 
  0.00000000E+00  0.00000000E+00  0.00000000E+00
  0.00000000E+00  0.00000000E+00  0.00000000E+00
  0.00000000E+00  0.00000000E+00  0.00000000E+00
  0.00000000E+00  0.00000000E+00  0.00000000E+00
  0.00000000E+00  0.00000000E+00  0.00000000E+00
  0.00000000E+00  0.00000000E+00  0.00000000E+00
  0.00000000E+00  0.00000000E+00  0.00000000E+00
  0.00000000E+00  0.00000000E+00  0.00000000E+00
  0.00000000E+00  0.00000000E+00  0.00000000E+00
  0.00000000E+00  0.00000000E+00  0.00000000E+00
  0.00000000E+00  0.00000000E+00  0.00000000E+00
  0.00000000E+00  0.00000000E+00  0.00000000E+00
  0.00000000E+00  0.00000000E+00  0.00000000E+00
  0.00000000E+00  0.00000000E+00  0.00000000E+00
  0.00000000E+00  0.00000000E+00  0.00000000E+00
  0.00000000E+00  0.00000000E+00  0.00000000E+00
  0.00000000E+00  0.00000000E+00  0.00000000E+00
  0.00000000E+00  0.00000000E+00  0.00000000E+00
  0.00000000E+00  0.00000000E+00  0.00000000E+00
  0.00000000E+00  0.00000000E+00  0.00000000E+00
  0.00000000E+00  0.00000000E+00  0.00000000E+00
  0.00000000E+00  0.00000000E+00  0.00000000E+00
  0.00000000E+00  0.00000000E+00  0.00000000E+00
  0.00000000E+00  0.00000000E+00  0.00000000E+00
  0.00000000E+00  0.00000000E+00  0.00000000E+00
  0.00000000E+00  0.00000000E+00  0.00000000E+00
  0.00000000E+00  0.00000000E+00  0.00000000E+00
  0.00000000E+00  0.00000000E+00  0.00000000E+00
  0.00000000E+00  0.00000000E+00  0.00000000E+00
  0.00000000E+00  0.00000000E+00  0.00000000E+00
  0.00000000E+00  0.00000000E+00  0.00000000E+00
  0.00000000E+00  0.00000000E+00  0.00000000E+00
  0.00000000E+00  0.00000000E+00  0.00000000E+00
  0.00000000E+00  0.00000000E+00  0.00000000E+00
  0.00000000E+00  0.00000000E+00  0.00000000E+00
  0.00000000E+00  0.00000000E+00  0.00000000E+00
  0.00000000E+00  0.00000000E+00  0.00000000E+00
  0.00000000E+00  0.00000000E+00  0.00000000E+00
  0.00000000E+00  0.00000000E+00  0.00000000E+00
  0.00000000E+00  0.00000000E+00  0.00000000E+00
  0.00000000E+00  0.00000000E+00  0.00000000E+00
  0.00000000E+00  0.00000000E+00  0.00000000E+00
  0.00000000E+00  0.00000000E+00  0.00000000E+00
  0.00000000E+00  0.00000000E+00  0.00000000E+00
  0.00000000E+00  0.00000000E+00  0.00000000E+00
  0.00000000E+00  0.00000000E+00  0.00000000E+00
  0.00000000E+00  0.00000000E+00  0.00000000E+00
  0.00000000E+00  0.00000000E+00  0.00000000E+00
  0.00000000E+00  0.00000000E+00  0.00000000E+00
  0.00000000E+00  0.00000000E+00  0.00000000E+00
  0.00000000E+00  0.00000000E+00  0.00000000E+00
