Ag  C  H  O                             
   1.00000000000000     
     7.2052998542999998    0.0000000000000000    0.0000000000000000
     0.0000000000000000    8.8247003554999992    0.0000000000000000
     0.0000000000000000    0.0000000000000000   26.8882007598999984
   Ag   C    H    O 
    45     1     4     1
Selective dynamics
Direct
  0.9566999999999979  0.0239600000000024  0.0000000000000000   F   F   F
  0.2900300000000016  0.0239600000000024  0.1263199999999998   F   F   F
  0.6262953885042926  0.0238345161078902  0.2556916411476755   T   T   T
  0.9709221734580863  0.0239467883370349  0.3864892613721307   T   T   T
  0.6233599999999981  0.0239600000000024  0.0631600000000034   F   F   F
  0.9576385914635009  0.0240799098998898  0.1916150299177883   T   T   T
  0.2941935273971064  0.0236421078673631  0.3204731337729904   T   T   T
  0.6351142020818854  0.0238362854344915  0.4473544893895524   T   T   T
  0.2900300000000016  0.1906200000000027  0.0315799999999982   F   F   F
  0.6233599999999981  0.1906200000000027  0.1579100000000011   F   F   F
  0.9614471506556018  0.1920425923341996  0.2880030504581386   T   T   T
  0.3037912430030249  0.1903545086892206  0.4183801640986560   T   T   T
  0.9566999999999979  0.1906200000000027  0.0947400000000016   F   F   F
  0.2919456517013096  0.1905273491688554  0.2234261814096045   T   T   T
  0.6337888177064110  0.1900282161532476  0.3520590088404296   T   T   T
  0.9566999999999979  0.3572899999999990  0.0000000000000000   F   F   F
  0.2900300000000016  0.3572899999999990  0.1263199999999998   F   F   F
  0.6258313447497048  0.3570628398922517  0.2552539057385672   T   T   T
  0.9711682477537766  0.3533494347088071  0.3866499589553801   T   T   T
  0.6233599999999981  0.3572899999999990  0.0631600000000034   F   F   F
  0.9580960965549956  0.3573815479394212  0.1909554939879857   T   T   T
  0.2947392512139092  0.3570523783599093  0.3207921874225785   T   T   T
  0.6321803241197143  0.3513133380337455  0.4471512310912441   T   T   T
  0.2900300000000016  0.5239600000000024  0.0315799999999982   F   F   F
  0.6233599999999981  0.5239600000000024  0.1579100000000011   F   F   F
  0.9598453137090456  0.5240264281901189  0.2879187592588047   T   T   T
  0.3017577885157670  0.5239568641699319  0.4188979778480891   T   T   T
  0.9566999999999979  0.5239600000000024  0.0947400000000016   F   F   F
  0.2922566987965651  0.5239238892067820  0.2235739262407683   T   T   T
  0.6284690880512616  0.5240502952173755  0.3512215300371293   T   T   T
  0.9566999999999979  0.6906200000000027  0.0000000000000000   F   F   F
  0.2900300000000016  0.6906200000000027  0.1263199999999998   F   F   F
  0.6256618007010559  0.6907354071142293  0.2552842411082076   T   T   T
  0.9710219429489104  0.6947090146306693  0.3867013266373865   T   T   T
  0.6233599999999981  0.6906200000000027  0.0631600000000034   F   F   F
  0.9580317715745343  0.6906619627941705  0.1909632424217014   T   T   T
  0.2945576207273590  0.6906248448635807  0.3208146625245239   T   T   T
  0.6322834809285238  0.6968890480913802  0.4486291320165702   T   T   T
  0.2900300000000016  0.8572899999999990  0.0315799999999982   F   F   F
  0.6233599999999981  0.8572899999999990  0.1579100000000011   F   F   F
  0.9613717999535044  0.8559203662795595  0.2880381896231082   T   T   T
  0.3044119763150275  0.8566789775653628  0.4186285465465547   T   T   T
  0.9566999999999979  0.8572899999999990  0.0947400000000016   F   F   F
  0.2918236311649866  0.8573724872220385  0.2233632398518727   T   T   T
  0.6340364068119269  0.8571518805787337  0.3522508263419369   T   T   T
  0.6311247662583779  0.3696938416798635  0.5767390319120640   T   T   T
  0.7017603273099690  0.2911266332997978  0.6016702577789742   T   T   T
  0.5502764066043573  0.4508173802572021  0.5983277804658573   T   T   T
  0.5376327513322053  0.3060725375294238  0.5525467182036508   T   T   T
  0.7337909934892876  0.4300557045460137  0.5544138490676724   T   T   T
  0.8668399726872352  0.5245606650415530  0.4469442806105206   T   T   T
 
  0.00000000E+00  0.00000000E+00  0.00000000E+00
  0.00000000E+00  0.00000000E+00  0.00000000E+00
  0.00000000E+00  0.00000000E+00  0.00000000E+00
  0.00000000E+00  0.00000000E+00  0.00000000E+00
  0.00000000E+00  0.00000000E+00  0.00000000E+00
  0.00000000E+00  0.00000000E+00  0.00000000E+00
  0.00000000E+00  0.00000000E+00  0.00000000E+00
  0.00000000E+00  0.00000000E+00  0.00000000E+00
  0.00000000E+00  0.00000000E+00  0.00000000E+00
  0.00000000E+00  0.00000000E+00  0.00000000E+00
  0.00000000E+00  0.00000000E+00  0.00000000E+00
  0.00000000E+00  0.00000000E+00  0.00000000E+00
  0.00000000E+00  0.00000000E+00  0.00000000E+00
  0.00000000E+00  0.00000000E+00  0.00000000E+00
  0.00000000E+00  0.00000000E+00  0.00000000E+00
  0.00000000E+00  0.00000000E+00  0.00000000E+00
  0.00000000E+00  0.00000000E+00  0.00000000E+00
  0.00000000E+00  0.00000000E+00  0.00000000E+00
  0.00000000E+00  0.00000000E+00  0.00000000E+00
  0.00000000E+00  0.00000000E+00  0.00000000E+00
  0.00000000E+00  0.00000000E+00  0.00000000E+00
  0.00000000E+00  0.00000000E+00  0.00000000E+00
  0.00000000E+00  0.00000000E+00  0.00000000E+00
  0.00000000E+00  0.00000000E+00  0.00000000E+00
  0.00000000E+00  0.00000000E+00  0.00000000E+00
  0.00000000E+00  0.00000000E+00  0.00000000E+00
  0.00000000E+00  0.00000000E+00  0.00000000E+00
  0.00000000E+00  0.00000000E+00  0.00000000E+00
  0.00000000E+00  0.00000000E+00  0.00000000E+00
  0.00000000E+00  0.00000000E+00  0.00000000E+00
  0.00000000E+00  0.00000000E+00  0.00000000E+00
  0.00000000E+00  0.00000000E+00  0.00000000E+00
  0.00000000E+00  0.00000000E+00  0.00000000E+00
  0.00000000E+00  0.00000000E+00  0.00000000E+00
  0.00000000E+00  0.00000000E+00  0.00000000E+00
  0.00000000E+00  0.00000000E+00  0.00000000E+00
  0.00000000E+00  0.00000000E+00  0.00000000E+00
  0.00000000E+00  0.00000000E+00  0.00000000E+00
  0.00000000E+00  0.00000000E+00  0.00000000E+00
  0.00000000E+00  0.00000000E+00  0.00000000E+00
  0.00000000E+00  0.00000000E+00  0.00000000E+00
  0.00000000E+00  0.00000000E+00  0.00000000E+00
  0.00000000E+00  0.00000000E+00  0.00000000E+00
  0.00000000E+00  0.00000000E+00  0.00000000E+00
  0.00000000E+00  0.00000000E+00  0.00000000E+00
  0.00000000E+00  0.00000000E+00  0.00000000E+00
  0.00000000E+00  0.00000000E+00  0.00000000E+00
  0.00000000E+00  0.00000000E+00  0.00000000E+00
  0.00000000E+00  0.00000000E+00  0.00000000E+00
  0.00000000E+00  0.00000000E+00  0.00000000E+00
  0.00000000E+00  0.00000000E+00  0.00000000E+00
