Ag                                      
   1.00000000000000     
     7.2052998542999998    0.0000000000000000    0.0000000000000000
     0.0000000000000000    8.8247003554999992    0.0000000000000000
     0.0000000000000000    0.0000000000000000   26.8882007598999984
   Ag
    45
Selective dynamics
Direct
  0.9566999999999979  0.0239600000000024  0.0000000000000000   F   F   F
  0.2900300000000016  0.0239600000000024  0.1263199999999998   F   F   F
  0.6225285291786650  0.0238511311751534  0.2551400042196728   T   T   T
  0.9607582326500691  0.0237952021037321  0.3869802443383469   T   T   T
  0.6233599999999981  0.0239600000000024  0.0631600000000034   F   F   F
  0.9564428429685853  0.0237260077742641  0.1909386408514932   T   T   T
  0.2896757837230346  0.0237919098019057  0.3201783294809428   T   T   T
  0.6248770855427461  0.0239744871973869  0.4458697735920968   T   T   T
  0.2900300000000016  0.1906200000000027  0.0315799999999982   F   F   F
  0.6233599999999981  0.1906200000000027  0.1579100000000011   F   F   F
  0.9564902563704423  0.1904104300001972  0.2873869392126100   T   T   T
  0.2905466480856702  0.1906943814040893  0.4178750943406095   T   T   T
  0.9566999999999979  0.1906200000000027  0.0947400000000016   F   F   F
  0.2894849136515802  0.1905064370482982  0.2231357800239455   T   T   T
  0.6273688140258006  0.1905473155620548  0.3516963242646037   T   T   T
  0.9566999999999979  0.3572899999999990  0.0000000000000000   F   F   F
  0.2900300000000016  0.3572899999999990  0.1263199999999998   F   F   F
  0.6225306874379796  0.3571824386932835  0.2551394919205989   T   T   T
  0.9607450853555064  0.3570970702084332  0.3869842306931599   T   T   T
  0.6233599999999981  0.3572899999999990  0.0631600000000034   F   F   F
  0.9564328232164978  0.3570634055181388  0.1909363065943025   T   T   T
  0.2897048196549981  0.3571309026451097  0.3201747923925959   T   T   T
  0.6249230814257259  0.3573001647216086  0.4458789008743569   T   T   T
  0.2900300000000016  0.5239600000000024  0.0315799999999982   F   F   F
  0.6233599999999981  0.5239600000000024  0.1579100000000011   F   F   F
  0.9564915159795285  0.5237373934664498  0.2873883681596367   T   T   T
  0.2905319703012639  0.5240278164803981  0.4178732881282544   T   T   T
  0.9566999999999979  0.5239600000000024  0.0947400000000016   F   F   F
  0.2894855778986146  0.5238373740567739  0.2231358033946194   T   T   T
  0.6273621344313064  0.5238932326362347  0.3516947479602078   T   T   T
  0.9566999999999979  0.6906200000000027  0.0000000000000000   F   F   F
  0.2900300000000016  0.6906200000000027  0.1263199999999998   F   F   F
  0.6225422108079051  0.6905115774674103  0.2551406898896306   T   T   T
  0.9607539961611589  0.6904584652579937  0.3869800131190100   T   T   T
  0.6233599999999981  0.6906200000000027  0.0631600000000034   F   F   F
  0.9564306822892074  0.6903970267971568  0.1909374083534425   T   T   T
  0.2896738425558081  0.6904506828019965  0.3201812452410413   T   T   T
  0.6249122831584284  0.6906320732106586  0.4458683038632507   T   T   T
  0.2900300000000016  0.8572899999999990  0.0315799999999982   F   F   F
  0.6233599999999981  0.8572899999999990  0.1579100000000011   F   F   F
  0.9564976921170664  0.8570755796565783  0.2873867751146587   T   T   T
  0.2905299931421534  0.8573625195121540  0.4178715170664853   T   T   T
  0.9566999999999979  0.8572899999999990  0.0947400000000016   F   F   F
  0.2894668508743357  0.8571997726658137  0.2231374795278550   T   T   T
  0.6273701018817774  0.8572057567310566  0.3516911389478823   T   T   T
 
  0.00000000E+00  0.00000000E+00  0.00000000E+00
  0.00000000E+00  0.00000000E+00  0.00000000E+00
  0.00000000E+00  0.00000000E+00  0.00000000E+00
  0.00000000E+00  0.00000000E+00  0.00000000E+00
  0.00000000E+00  0.00000000E+00  0.00000000E+00
  0.00000000E+00  0.00000000E+00  0.00000000E+00
  0.00000000E+00  0.00000000E+00  0.00000000E+00
  0.00000000E+00  0.00000000E+00  0.00000000E+00
  0.00000000E+00  0.00000000E+00  0.00000000E+00
  0.00000000E+00  0.00000000E+00  0.00000000E+00
  0.00000000E+00  0.00000000E+00  0.00000000E+00
  0.00000000E+00  0.00000000E+00  0.00000000E+00
  0.00000000E+00  0.00000000E+00  0.00000000E+00
  0.00000000E+00  0.00000000E+00  0.00000000E+00
  0.00000000E+00  0.00000000E+00  0.00000000E+00
  0.00000000E+00  0.00000000E+00  0.00000000E+00
  0.00000000E+00  0.00000000E+00  0.00000000E+00
  0.00000000E+00  0.00000000E+00  0.00000000E+00
  0.00000000E+00  0.00000000E+00  0.00000000E+00
  0.00000000E+00  0.00000000E+00  0.00000000E+00
  0.00000000E+00  0.00000000E+00  0.00000000E+00
  0.00000000E+00  0.00000000E+00  0.00000000E+00
  0.00000000E+00  0.00000000E+00  0.00000000E+00
  0.00000000E+00  0.00000000E+00  0.00000000E+00
  0.00000000E+00  0.00000000E+00  0.00000000E+00
  0.00000000E+00  0.00000000E+00  0.00000000E+00
  0.00000000E+00  0.00000000E+00  0.00000000E+00
  0.00000000E+00  0.00000000E+00  0.00000000E+00
  0.00000000E+00  0.00000000E+00  0.00000000E+00
  0.00000000E+00  0.00000000E+00  0.00000000E+00
  0.00000000E+00  0.00000000E+00  0.00000000E+00
  0.00000000E+00  0.00000000E+00  0.00000000E+00
  0.00000000E+00  0.00000000E+00  0.00000000E+00
  0.00000000E+00  0.00000000E+00  0.00000000E+00
  0.00000000E+00  0.00000000E+00  0.00000000E+00
  0.00000000E+00  0.00000000E+00  0.00000000E+00
  0.00000000E+00  0.00000000E+00  0.00000000E+00
  0.00000000E+00  0.00000000E+00  0.00000000E+00
  0.00000000E+00  0.00000000E+00  0.00000000E+00
  0.00000000E+00  0.00000000E+00  0.00000000E+00
  0.00000000E+00  0.00000000E+00  0.00000000E+00
  0.00000000E+00  0.00000000E+00  0.00000000E+00
  0.00000000E+00  0.00000000E+00  0.00000000E+00
  0.00000000E+00  0.00000000E+00  0.00000000E+00
  0.00000000E+00  0.00000000E+00  0.00000000E+00
