Ag  O                                   
   1.00000000000000     
     7.2052998542999998    0.0000000000000000    0.0000000000000000
     0.0000000000000000    8.8247003554999992    0.0000000000000000
     0.0000000000000000    0.0000000000000000   26.8882007598999984
   Ag   O 
    45     1
Selective dynamics
Direct
  0.9566999999999979  0.0239600000000024  0.0000000000000000   F   F   F
  0.2900300000000016  0.0239600000000024  0.1263199999999998   F   F   F
  0.6262586455428344  0.0237100990691025  0.2556638506230068   T   T   T
  0.9710961621097627  0.0239096685683298  0.3864684491575884   T   T   T
  0.6233599999999981  0.0239600000000024  0.0631600000000034   F   F   F
  0.9575531625140743  0.0239874815196357  0.1915558965709427   T   T   T
  0.2943970544175296  0.0237160760766472  0.3204456279114188   T   T   T
  0.6352290227956695  0.0240606651964610  0.4474110369663448   T   T   T
  0.2900300000000016  0.1906200000000027  0.0315799999999982   F   F   F
  0.6233599999999981  0.1906200000000027  0.1579100000000011   F   F   F
  0.9614615441713391  0.1920299330844243  0.2879970602742010   T   T   T
  0.3044387417149970  0.1904889183706660  0.4183900339314856   T   T   T
  0.9566999999999979  0.1906200000000027  0.0947400000000016   F   F   F
  0.2918899288200273  0.1906159562419083  0.2234015395921261   T   T   T
  0.6341273346906067  0.1900819602127121  0.3520482021105658   T   T   T
  0.9566999999999979  0.3572899999999990  0.0000000000000000   F   F   F
  0.2900300000000016  0.3572899999999990  0.1263199999999998   F   F   F
  0.6256990928896906  0.3571177474693715  0.2552766241101188   T   T   T
  0.9714670867523600  0.3533412211482556  0.3865822670583781   T   T   T
  0.6233599999999981  0.3572899999999990  0.0631600000000034   F   F   F
  0.9580808905366954  0.3573993959083444  0.1909441894377168   T   T   T
  0.2947659102154373  0.3570580378243194  0.3208226948201152   T   T   T
  0.6330877760644018  0.3515685264811624  0.4480963907895892   T   T   T
  0.2900300000000016  0.5239600000000024  0.0315799999999982   F   F   F
  0.6233599999999981  0.5239600000000024  0.1579100000000011   F   F   F
  0.9596654962287601  0.5239477250391578  0.2879330578425055   T   T   T
  0.3022027045693603  0.5240068768260044  0.4189085929957994   T   T   T
  0.9566999999999979  0.5239600000000024  0.0947400000000016   F   F   F
  0.2920814926201038  0.5239400917935314  0.2235534759066637   T   T   T
  0.6285243717390829  0.5240698503927040  0.3512334725414039   T   T   T
  0.9566999999999979  0.6906200000000027  0.0000000000000000   F   F   F
  0.2900300000000016  0.6906200000000027  0.1263199999999998   F   F   F
  0.6255794229461831  0.6906831849327616  0.2552925234657409   T   T   T
  0.9713097264646232  0.6947750344650687  0.3866485660452220   T   T   T
  0.6233599999999981  0.6906200000000027  0.0631600000000034   F   F   F
  0.9580497027156171  0.6906840384646856  0.1909521181878173   T   T   T
  0.2945424379028194  0.6906181846346443  0.3208090288849330   T   T   T
  0.6328387853946887  0.6968393484944049  0.4487150388246582   T   T   T
  0.2900300000000016  0.8572899999999990  0.0315799999999982   F   F   F
  0.6233599999999981  0.8572899999999990  0.1579100000000011   F   F   F
  0.9613122053739986  0.8558302870122062  0.2880010533969861   T   T   T
  0.3045762358781415  0.8565626643378244  0.4185633681664919   T   T   T
  0.9566999999999979  0.8572899999999990  0.0947400000000016   F   F   F
  0.2918084476346486  0.8573362028147281  0.2233626471790391   T   T   T
  0.6342468635987432  0.8571996819524946  0.3523255997423448   T   T   T
  0.8664914635669130  0.5242292065779792  0.4467408975339086   T   T   T
 
  0.00000000E+00  0.00000000E+00  0.00000000E+00
  0.00000000E+00  0.00000000E+00  0.00000000E+00
  0.00000000E+00  0.00000000E+00  0.00000000E+00
  0.00000000E+00  0.00000000E+00  0.00000000E+00
  0.00000000E+00  0.00000000E+00  0.00000000E+00
  0.00000000E+00  0.00000000E+00  0.00000000E+00
  0.00000000E+00  0.00000000E+00  0.00000000E+00
  0.00000000E+00  0.00000000E+00  0.00000000E+00
  0.00000000E+00  0.00000000E+00  0.00000000E+00
  0.00000000E+00  0.00000000E+00  0.00000000E+00
  0.00000000E+00  0.00000000E+00  0.00000000E+00
  0.00000000E+00  0.00000000E+00  0.00000000E+00
  0.00000000E+00  0.00000000E+00  0.00000000E+00
  0.00000000E+00  0.00000000E+00  0.00000000E+00
  0.00000000E+00  0.00000000E+00  0.00000000E+00
  0.00000000E+00  0.00000000E+00  0.00000000E+00
  0.00000000E+00  0.00000000E+00  0.00000000E+00
  0.00000000E+00  0.00000000E+00  0.00000000E+00
  0.00000000E+00  0.00000000E+00  0.00000000E+00
  0.00000000E+00  0.00000000E+00  0.00000000E+00
  0.00000000E+00  0.00000000E+00  0.00000000E+00
  0.00000000E+00  0.00000000E+00  0.00000000E+00
  0.00000000E+00  0.00000000E+00  0.00000000E+00
  0.00000000E+00  0.00000000E+00  0.00000000E+00
  0.00000000E+00  0.00000000E+00  0.00000000E+00
  0.00000000E+00  0.00000000E+00  0.00000000E+00
  0.00000000E+00  0.00000000E+00  0.00000000E+00
  0.00000000E+00  0.00000000E+00  0.00000000E+00
  0.00000000E+00  0.00000000E+00  0.00000000E+00
  0.00000000E+00  0.00000000E+00  0.00000000E+00
  0.00000000E+00  0.00000000E+00  0.00000000E+00
  0.00000000E+00  0.00000000E+00  0.00000000E+00
  0.00000000E+00  0.00000000E+00  0.00000000E+00
  0.00000000E+00  0.00000000E+00  0.00000000E+00
  0.00000000E+00  0.00000000E+00  0.00000000E+00
  0.00000000E+00  0.00000000E+00  0.00000000E+00
  0.00000000E+00  0.00000000E+00  0.00000000E+00
  0.00000000E+00  0.00000000E+00  0.00000000E+00
  0.00000000E+00  0.00000000E+00  0.00000000E+00
  0.00000000E+00  0.00000000E+00  0.00000000E+00
  0.00000000E+00  0.00000000E+00  0.00000000E+00
  0.00000000E+00  0.00000000E+00  0.00000000E+00
  0.00000000E+00  0.00000000E+00  0.00000000E+00
  0.00000000E+00  0.00000000E+00  0.00000000E+00
  0.00000000E+00  0.00000000E+00  0.00000000E+00
  0.00000000E+00  0.00000000E+00  0.00000000E+00
