Cu Fe Cu O                              
   1.00000000000000     
    10.9200000762999991    0.0000000000000000    0.0000000000000000
     0.0000000000000000    7.7216000556999997    0.0000000000000000
     0.0000000000000000    0.0000000000000000   18.8607997894000015
   Cu   Fe   Cu   O 
    16     1    19     1
Selective dynamics
Direct
     0.9994173329292917    0.9986747966654067    0.2003422341497251   T   T   T
     0.1664263023097320    0.1641425841574754    0.1391548242865464   T   T   T
     0.1666699946229926    0.1666699946535033    0.0000000000000000   F   F   F
     0.0000000000000000    0.0000000000000000    0.0682300030947403   F   F   F
     0.3295417543940041    0.0063517733821332    0.2032216010592086   T   T   T
     0.5014343183284239    0.1669600899559279    0.1370890264632827   T   T   T
     0.4999999999862652    0.1666699946535033    0.0000000000000000   F   F   F
     0.3333300053632726    0.0000000000000000    0.0682300030947403   F   F   F
     0.6722455126215564    0.0016333401246458    0.2009380840064069   T   T   T
     0.8344943532043171    0.1659442521565775    0.1381444207323324   T   T   T
     0.8333299755876311    0.1666699946535033    0.0000000000000000   F   F   F
     0.6666700243711574    0.0000000000000000    0.0682300030947403   F   F   F
     0.0001210247752683    0.3321678291995551    0.1998763668387966   T   T   T
     0.1663557560329597    0.5000403596130515    0.1391399136633958   T   T   T
     0.1666699946229926    0.5000000000194262    0.0000000000000000   F   F   F
     0.0000000000000000    0.3333300053659229    0.0682300030947403   F   F   F
     0.3328657270591703    0.3313937716380029    0.1997021324454520   T   T   T
     0.5012456709323638    0.4972686332548990    0.1372459699711237   T   T   T
     0.4999999999862652    0.5000000000194262    0.0000000000000000   F   F   F
     0.3333300053632726    0.3333300053659229    0.0682300030947403   F   F   F
     0.6674265705071574    0.3319115346264323    0.1996112995768070   T   T   T
     0.8344425891336770    0.4985174541742415    0.1382677173374984   T   T   T
     0.8333299755876311    0.5000000000194262    0.0000000000000000   F   F   F
     0.6666700243711574    0.3333300053659229    0.0682300030947403   F   F   F
     0.9995765199832289    0.6654450995267668    0.2002782700500738   T   T   T
     0.1653591311739849    0.8324539420811069    0.1370126221035463   T   T   T
     0.1666699946229926    0.8333299755987795    0.0000000000000000   F   F   F
     0.0000000000000000    0.6666700243299957    0.0682300030947403   F   F   F
     0.3295296153250747    0.6562974819578684    0.2030919516848665   T   T   T
     0.5049849414418975    0.8322965900341924    0.1398755958050640   T   T   T
     0.4999999999862652    0.8333299755987795    0.0000000000000000   F   F   F
     0.3333300053632726    0.6666700243299957    0.0682300030947403   F   F   F
     0.6718768074871622    0.6618917421527848    0.2009502430930785   T   T   T
     0.8340401202264996    0.8322397715960279    0.1383508626068074   T   T   T
     0.8333299755876311    0.8333299755987795    0.0000000000000000   F   F   F
     0.6666700243711574    0.6666700243299957    0.0682300030947403   F   F   F
     0.4324686138890286    0.8315802719757354    0.2387917223557794   T   T   T
 
  0.00000000E+00  0.00000000E+00  0.00000000E+00
  0.00000000E+00  0.00000000E+00  0.00000000E+00
  0.00000000E+00  0.00000000E+00  0.00000000E+00
  0.00000000E+00  0.00000000E+00  0.00000000E+00
  0.00000000E+00  0.00000000E+00  0.00000000E+00
  0.00000000E+00  0.00000000E+00  0.00000000E+00
  0.00000000E+00  0.00000000E+00  0.00000000E+00
  0.00000000E+00  0.00000000E+00  0.00000000E+00
  0.00000000E+00  0.00000000E+00  0.00000000E+00
  0.00000000E+00  0.00000000E+00  0.00000000E+00
  0.00000000E+00  0.00000000E+00  0.00000000E+00
  0.00000000E+00  0.00000000E+00  0.00000000E+00
  0.00000000E+00  0.00000000E+00  0.00000000E+00
  0.00000000E+00  0.00000000E+00  0.00000000E+00
  0.00000000E+00  0.00000000E+00  0.00000000E+00
  0.00000000E+00  0.00000000E+00  0.00000000E+00
  0.00000000E+00  0.00000000E+00  0.00000000E+00
  0.00000000E+00  0.00000000E+00  0.00000000E+00
  0.00000000E+00  0.00000000E+00  0.00000000E+00
  0.00000000E+00  0.00000000E+00  0.00000000E+00
  0.00000000E+00  0.00000000E+00  0.00000000E+00
  0.00000000E+00  0.00000000E+00  0.00000000E+00
  0.00000000E+00  0.00000000E+00  0.00000000E+00
  0.00000000E+00  0.00000000E+00  0.00000000E+00
  0.00000000E+00  0.00000000E+00  0.00000000E+00
  0.00000000E+00  0.00000000E+00  0.00000000E+00
  0.00000000E+00  0.00000000E+00  0.00000000E+00
  0.00000000E+00  0.00000000E+00  0.00000000E+00
  0.00000000E+00  0.00000000E+00  0.00000000E+00
  0.00000000E+00  0.00000000E+00  0.00000000E+00
  0.00000000E+00  0.00000000E+00  0.00000000E+00
  0.00000000E+00  0.00000000E+00  0.00000000E+00
  0.00000000E+00  0.00000000E+00  0.00000000E+00
  0.00000000E+00  0.00000000E+00  0.00000000E+00
  0.00000000E+00  0.00000000E+00  0.00000000E+00
  0.00000000E+00  0.00000000E+00  0.00000000E+00
  0.00000000E+00  0.00000000E+00  0.00000000E+00
