Ni  C  H  O                             
   1.00000000000000     
     7.4670000076000003    0.0000000000000000    0.0000000000000000
    -3.7335000038000001    6.4666116967000002    0.0000000000000000
     0.0000000000000000    0.0000000000000000   21.0967998504999983
   Ni   C    H    O 
    36     1     4     1
Selective dynamics
Direct
  0.0000000000000000  0.0000000000000000  0.0000000000000000   F   F   F
  0.9975440455182140  0.9981940014275810  0.2889849048022917   T   T   T
  0.2224309021052395  0.1147759122003655  0.1946074392821858   T   T   T
  0.1111100018370763  0.2222200036741526  0.0963300019624427   F   F   F
  0.3333300054194055  0.0000000000000000  0.0000000000000000   F   F   F
  0.3344422131070383  0.0016662374356245  0.2878584429425270   T   T   T
  0.5551172790584111  0.1116867542282450  0.1923441284294047   T   T   T
  0.4444400072564818  0.2222200036741526  0.0963300019624427   F   F   F
  0.6666700243649828  0.0000000000000000  0.0000000000000000   F   F   F
  0.6661192958429870  0.0004782409989374  0.2889112212932765   T   T   T
  0.8889981425707004  0.1133533045697346  0.1937524176424164   T   T   T
  0.7777799964712386  0.2222200036741526  0.0963300019624427   F   F   F
  0.0000000000742162  0.3333300054339077  0.0000000000000000   F   F   F
  0.9931505371724065  0.3294001522112156  0.2927680396372006   T   T   T
  0.2225988770846105  0.4440710929051827  0.1949949755972799   T   T   T
  0.1111100018189788  0.5555599928527215  0.0963300019624427   F   F   F
  0.3333300053596986  0.3333300054339077  0.0000000000000000   F   F   F
  0.3397600955067109  0.3263965483174116  0.3041233060380392   T   T   T
  0.5517560477376110  0.4436288219856172  0.1946768579486027   T   T   T
  0.4444400072383843  0.5555599928527215  0.0963300019624427   F   F   F
  0.6666700244391919  0.3333300054339077  0.0000000000000000   F   F   F
  0.6655372878341996  0.3326161965784988  0.2880007622949823   T   T   T
  0.8886346281675069  0.4446865737706286  0.1934798571742522   T   T   T
  0.7777799964531482  0.5555599928527215  0.0963300019624427   F   F   F
  0.9999999999795932  0.6666700244580994  0.0000000000000000   F   F   F
  0.9972091932832461  0.6703037586718837  0.2899024918676165   T   T   T
  0.2219218602738734  0.7781397778312448  0.1933761900024900   T   T   T
  0.1111100017393554  0.8888900279776095  0.0963300019624427   F   F   F
  0.3333300053989987  0.6666700244580994  0.0000000000000000   F   F   F
  0.3378558602081496  0.6738017048967634  0.2926956636428417   T   T   T
  0.5536939733324164  0.7780194206505024  0.1937644513460088   T   T   T
  0.4444400071587609  0.8888900279776095  0.0963300019624427   F   F   F
  0.6666700244784991  0.6666700244580994  0.0000000000000000   F   F   F
  0.6688835059026490  0.6691856126685162  0.2888835459428422   T   T   T
  0.8887242784266890  0.7777016745299725  0.1931619755655274   T   T   T
  0.7777799963735177  0.8888900279776095  0.0963300019624427   F   F   F
  0.3605220872960235  0.3083462112824507  0.4077737762257531   T   T   T
  0.3702444058042680  0.1680275298409191  0.4020791243625972   T   T   T
  0.2416480382565094  0.2707952592762673  0.4441689065867915   T   T   T
  0.2603383455476940  0.4043810180499006  0.3777077011749165   T   T   T
  0.5087895900199920  0.4331752428299618  0.4247290350695747   T   T   T
  0.1719683251596522  0.4962069373882934  0.3572306692693571   T   T   T
 
  0.00000000E+00  0.00000000E+00  0.00000000E+00
  0.00000000E+00  0.00000000E+00  0.00000000E+00
  0.00000000E+00  0.00000000E+00  0.00000000E+00
  0.00000000E+00  0.00000000E+00  0.00000000E+00
  0.00000000E+00  0.00000000E+00  0.00000000E+00
  0.00000000E+00  0.00000000E+00  0.00000000E+00
  0.00000000E+00  0.00000000E+00  0.00000000E+00
  0.00000000E+00  0.00000000E+00  0.00000000E+00
  0.00000000E+00  0.00000000E+00  0.00000000E+00
  0.00000000E+00  0.00000000E+00  0.00000000E+00
  0.00000000E+00  0.00000000E+00  0.00000000E+00
  0.00000000E+00  0.00000000E+00  0.00000000E+00
  0.00000000E+00  0.00000000E+00  0.00000000E+00
  0.00000000E+00  0.00000000E+00  0.00000000E+00
  0.00000000E+00  0.00000000E+00  0.00000000E+00
  0.00000000E+00  0.00000000E+00  0.00000000E+00
  0.00000000E+00  0.00000000E+00  0.00000000E+00
  0.00000000E+00  0.00000000E+00  0.00000000E+00
  0.00000000E+00  0.00000000E+00  0.00000000E+00
  0.00000000E+00  0.00000000E+00  0.00000000E+00
  0.00000000E+00  0.00000000E+00  0.00000000E+00
  0.00000000E+00  0.00000000E+00  0.00000000E+00
  0.00000000E+00  0.00000000E+00  0.00000000E+00
  0.00000000E+00  0.00000000E+00  0.00000000E+00
  0.00000000E+00  0.00000000E+00  0.00000000E+00
  0.00000000E+00  0.00000000E+00  0.00000000E+00
  0.00000000E+00  0.00000000E+00  0.00000000E+00
  0.00000000E+00  0.00000000E+00  0.00000000E+00
  0.00000000E+00  0.00000000E+00  0.00000000E+00
  0.00000000E+00  0.00000000E+00  0.00000000E+00
  0.00000000E+00  0.00000000E+00  0.00000000E+00
  0.00000000E+00  0.00000000E+00  0.00000000E+00
  0.00000000E+00  0.00000000E+00  0.00000000E+00
  0.00000000E+00  0.00000000E+00  0.00000000E+00
  0.00000000E+00  0.00000000E+00  0.00000000E+00
  0.00000000E+00  0.00000000E+00  0.00000000E+00
  0.00000000E+00  0.00000000E+00  0.00000000E+00
  0.00000000E+00  0.00000000E+00  0.00000000E+00
  0.00000000E+00  0.00000000E+00  0.00000000E+00
  0.00000000E+00  0.00000000E+00  0.00000000E+00
  0.00000000E+00  0.00000000E+00  0.00000000E+00
  0.00000000E+00  0.00000000E+00  0.00000000E+00
