Ag Fe Ag O  C  H                        
   1.00000000000000     
     8.8247003554999992    0.0000000000000000    0.0000000000000000
     0.0000000000000000    8.8247003554999992    0.0000000000000000
     0.0000000000000000    0.0000000000000000   21.2399997710999990
   Ag   Fe   Ag   O    C    H 
    17     1    18     1     1     4
Selective dynamics
Direct
  0.0000000000000000  0.0000000000000000  0.0979299992192182   F   F   F
 -0.0003314482718555 -0.0003444401207295  0.3000130777488509   T   T   T
  0.1666699946455736  0.1666699946455736  0.0000000000000000   F   F   F
  0.1660120203922242  0.1659877920538153  0.1986596128104186   T   T   T
  0.3333300053827557  0.0000000000000000  0.0979299992192182   F   F   F
  0.3312833932029755  0.0051060302082815  0.2992547766179480   T   T   T
  0.5000000000283293  0.1666699946455736  0.0000000000000000   F   F   F
  0.4984906128958990  0.1700790075708130  0.2001807969392025   T   T   T
  0.6666700243632988  0.0000000000000000  0.0979299992192182   F   F   F
  0.6657840686548165  0.0014776729590121  0.3001793918569906   T   T   T
  0.8333299756083719  0.1666699946455736  0.0000000000000000   F   F   F
  0.8311170314914003  0.1676560521560425  0.2004577094637818   T   T   T
  0.0000000000000000  0.3333300053827557  0.0979299992192182   F   F   F
  0.0050751657126366  0.3312184199358206  0.2992372352795229   T   T   T
  0.1666699946455736  0.5000000000283293  0.0000000000000000   F   F   F
  0.1700632459881791  0.4984850645699198  0.2001809322021066   T   T   T
  0.3333300053827557  0.3333300053827557  0.0979299992192182   F   F   F
  0.3260455245178454  0.3260685225097365  0.2940557007679120   T   T   T
  0.5000000000283293  0.5000000000283293  0.0000000000000000   F   F   F
  0.5011406793850111  0.5010877482571389  0.1977372725789311   T   T   T
  0.6666700243632988  0.3333300053827557  0.0979299992192182   F   F   F
  0.6712015661431906  0.3338730479378290  0.3016817167515157   T   T   T
  0.8333299756083719  0.5000000000283293  0.0000000000000000   F   F   F
  0.8340344821721268  0.4998119428501880  0.2004000527539106   T   T   T
  0.0000000000000000  0.6666700243632988  0.0979299992192182   F   F   F
  0.0014903149158607  0.6657417935573622  0.3002390859827441   T   T   T
  0.1666699946455736  0.8333299756083719  0.0000000000000000   F   F   F
  0.1675979438870144  0.8310588578947506  0.2005142541225892   T   T   T
  0.3333300053827557  0.6666700243632988  0.0979299992192182   F   F   F
  0.3339504857052585  0.6711729774981623  0.3016584312389882   T   T   T
  0.5000000000283293  0.8333299756083719  0.0000000000000000   F   F   F
  0.4997352697277136  0.8340032391005739  0.2003708055840301   T   T   T
  0.6666700243632988  0.6666700243632988  0.0979299992192182   F   F   F
  0.6719543362925481  0.6719419078411019  0.2997458432229377   T   T   T
  0.8333299756083719  0.8333299756083719  0.0000000000000000   F   F   F
  0.8337439322717943  0.8337929581744796  0.1993699769976782   T   T   T
  0.4404324813406940  0.4404553965579719  0.3412141246207412   T   T   T
  0.3071209973832892  0.3071201512879279  0.4860454898704500   T   T   T
  0.2395049243147278  0.2395058711853391  0.4534544232487744   T   T   T
  0.3743380470861002  0.2319297663696690  0.5156863974246590   T   T   T
  0.2319319952519065  0.3743362485668394  0.5156873673399125   T   T   T
  0.3813510078553931  0.3813513695805546  0.4590600886702781   T   T   T
 
  0.00000000E+00  0.00000000E+00  0.00000000E+00
  0.00000000E+00  0.00000000E+00  0.00000000E+00
  0.00000000E+00  0.00000000E+00  0.00000000E+00
  0.00000000E+00  0.00000000E+00  0.00000000E+00
  0.00000000E+00  0.00000000E+00  0.00000000E+00
  0.00000000E+00  0.00000000E+00  0.00000000E+00
  0.00000000E+00  0.00000000E+00  0.00000000E+00
  0.00000000E+00  0.00000000E+00  0.00000000E+00
  0.00000000E+00  0.00000000E+00  0.00000000E+00
  0.00000000E+00  0.00000000E+00  0.00000000E+00
  0.00000000E+00  0.00000000E+00  0.00000000E+00
  0.00000000E+00  0.00000000E+00  0.00000000E+00
  0.00000000E+00  0.00000000E+00  0.00000000E+00
  0.00000000E+00  0.00000000E+00  0.00000000E+00
  0.00000000E+00  0.00000000E+00  0.00000000E+00
  0.00000000E+00  0.00000000E+00  0.00000000E+00
  0.00000000E+00  0.00000000E+00  0.00000000E+00
  0.00000000E+00  0.00000000E+00  0.00000000E+00
  0.00000000E+00  0.00000000E+00  0.00000000E+00
  0.00000000E+00  0.00000000E+00  0.00000000E+00
  0.00000000E+00  0.00000000E+00  0.00000000E+00
  0.00000000E+00  0.00000000E+00  0.00000000E+00
  0.00000000E+00  0.00000000E+00  0.00000000E+00
  0.00000000E+00  0.00000000E+00  0.00000000E+00
  0.00000000E+00  0.00000000E+00  0.00000000E+00
  0.00000000E+00  0.00000000E+00  0.00000000E+00
  0.00000000E+00  0.00000000E+00  0.00000000E+00
  0.00000000E+00  0.00000000E+00  0.00000000E+00
  0.00000000E+00  0.00000000E+00  0.00000000E+00
  0.00000000E+00  0.00000000E+00  0.00000000E+00
  0.00000000E+00  0.00000000E+00  0.00000000E+00
  0.00000000E+00  0.00000000E+00  0.00000000E+00
  0.00000000E+00  0.00000000E+00  0.00000000E+00
  0.00000000E+00  0.00000000E+00  0.00000000E+00
  0.00000000E+00  0.00000000E+00  0.00000000E+00
  0.00000000E+00  0.00000000E+00  0.00000000E+00
  0.00000000E+00  0.00000000E+00  0.00000000E+00
  0.00000000E+00  0.00000000E+00  0.00000000E+00
  0.00000000E+00  0.00000000E+00  0.00000000E+00
  0.00000000E+00  0.00000000E+00  0.00000000E+00
  0.00000000E+00  0.00000000E+00  0.00000000E+00
  0.00000000E+00  0.00000000E+00  0.00000000E+00
