Cu Ir Cu O  C  H                        
   1.00000000000000     
    10.9200000762999991    0.0000000000000000    0.0000000000000000
     0.0000000000000000    7.7216000556999997    0.0000000000000000
     0.0000000000000000    0.0000000000000000   18.8607997894000015
   Cu   Ir   Cu   O    C    H 
    16     1    19     1     1     4
Selective dynamics
Direct
  0.9996940295219122  0.0008022055700820  0.2034649897490320   T   T   T
  0.1648343100778032  0.1678586458718326  0.1379823202267290   T   T   T
  0.1666699946229926  0.1666699946535033  0.0000000000000000   F   F   F
  0.0000000000000000  0.0000000000000000  0.0682300030947403   F   F   F
  0.3332583049462056  0.9874406891545717  0.2136543927066099   T   T   T
  0.5014368825812145  0.1676813823433530  0.1384312619926412   T   T   T
  0.4999999999862652  0.1666699946535033  0.0000000000000000   F   F   F
  0.3333300053632726  0.0000000000000000  0.0682300030947403   F   F   F
  0.6669138322892847  0.0007994043646416  0.2034156572809525   T   T   T
  0.8332802816768562  0.1655743505888160  0.1403147617204031   T   T   T
  0.8333299755876311  0.1666699946535033  0.0000000000000000   F   F   F
  0.6666700243711574  0.0000000000000000  0.0682300030947403   F   F   F
  0.9974334788070500  0.3362738281771377  0.2035512540117967   T   T   T
  0.1646876974061144  0.5006601695132590  0.1406152552167063   T   T   T
  0.1666699946229926  0.5000000000194262  0.0000000000000000   F   F   F
  0.0000000000000000  0.3333300053659229  0.0682300030947403   F   F   F
  0.3328306912950502  0.3341324474297964  0.2071302538460930   T   T   T
  0.5017432998020405  0.5005033962472318  0.1406767852327448   T   T   T
  0.4999999999862652  0.5000000000194262  0.0000000000000000   F   F   F
  0.3333300053632726  0.3333300053659229  0.0682300030947403   F   F   F
  0.6692073600013204  0.3362868370151151  0.2035473158132834   T   T   T
  0.8333110517295590  0.5011873648179845  0.1401434862694745   T   T   T
  0.8333299755876311  0.5000000000194262  0.0000000000000000   F   F   F
  0.6666700243711574  0.3333300053659229  0.0682300030947403   F   F   F
  0.9989181852160860  0.6713057577978744  0.2035771470720774   T   T   T
  0.1691157480161848  0.8359338780801666  0.1405528677086544   T   T   T
  0.1666699946229926  0.8333299755987795  0.0000000000000000   F   F   F
  0.0000000000000000  0.6666700243299957  0.0682300030947403   F   F   F
  0.3333137923885634  0.6627727675079845  0.2034041268751291   T   T   T
  0.4974542789459460  0.8360120624432069  0.1405620419575800   T   T   T
  0.4999999999862652  0.8333299755987795  0.0000000000000000   F   F   F
  0.3333300053632726  0.6666700243299957  0.0682300030947403   F   F   F
  0.6677603116896375  0.6714193728391290  0.2035467048728680   T   T   T
  0.8333649028856770  0.8351628186813969  0.1402159387550197   T   T   T
  0.8333299755876311  0.8333299755987795  0.0000000000000000   F   F   F
  0.6666700243711574  0.6666700243299957  0.0682300030947403   F   F   F
  0.3307470868356750  0.1802910446612074  0.2819352046076501   T   T   T
  0.3331258623929053  0.6758812491475907  0.4034546720607537   T   T   T
  0.2514935267120889  0.6847811883408982  0.4366785284959424   T   T   T
  0.4147722052520656  0.6847334944326785  0.4366701272827047   T   T   T
  0.3331184554080621  0.7825968358416586  0.3654671557136376   T   T   T
  0.3330871010673903  0.5524704579350641  0.3753119419375147   T   T   T
 
  0.00000000E+00  0.00000000E+00  0.00000000E+00
  0.00000000E+00  0.00000000E+00  0.00000000E+00
  0.00000000E+00  0.00000000E+00  0.00000000E+00
  0.00000000E+00  0.00000000E+00  0.00000000E+00
  0.00000000E+00  0.00000000E+00  0.00000000E+00
  0.00000000E+00  0.00000000E+00  0.00000000E+00
  0.00000000E+00  0.00000000E+00  0.00000000E+00
  0.00000000E+00  0.00000000E+00  0.00000000E+00
  0.00000000E+00  0.00000000E+00  0.00000000E+00
  0.00000000E+00  0.00000000E+00  0.00000000E+00
  0.00000000E+00  0.00000000E+00  0.00000000E+00
  0.00000000E+00  0.00000000E+00  0.00000000E+00
  0.00000000E+00  0.00000000E+00  0.00000000E+00
  0.00000000E+00  0.00000000E+00  0.00000000E+00
  0.00000000E+00  0.00000000E+00  0.00000000E+00
  0.00000000E+00  0.00000000E+00  0.00000000E+00
  0.00000000E+00  0.00000000E+00  0.00000000E+00
  0.00000000E+00  0.00000000E+00  0.00000000E+00
  0.00000000E+00  0.00000000E+00  0.00000000E+00
  0.00000000E+00  0.00000000E+00  0.00000000E+00
  0.00000000E+00  0.00000000E+00  0.00000000E+00
  0.00000000E+00  0.00000000E+00  0.00000000E+00
  0.00000000E+00  0.00000000E+00  0.00000000E+00
  0.00000000E+00  0.00000000E+00  0.00000000E+00
  0.00000000E+00  0.00000000E+00  0.00000000E+00
  0.00000000E+00  0.00000000E+00  0.00000000E+00
  0.00000000E+00  0.00000000E+00  0.00000000E+00
  0.00000000E+00  0.00000000E+00  0.00000000E+00
  0.00000000E+00  0.00000000E+00  0.00000000E+00
  0.00000000E+00  0.00000000E+00  0.00000000E+00
  0.00000000E+00  0.00000000E+00  0.00000000E+00
  0.00000000E+00  0.00000000E+00  0.00000000E+00
  0.00000000E+00  0.00000000E+00  0.00000000E+00
  0.00000000E+00  0.00000000E+00  0.00000000E+00
  0.00000000E+00  0.00000000E+00  0.00000000E+00
  0.00000000E+00  0.00000000E+00  0.00000000E+00
  0.00000000E+00  0.00000000E+00  0.00000000E+00
  0.00000000E+00  0.00000000E+00  0.00000000E+00
  0.00000000E+00  0.00000000E+00  0.00000000E+00
  0.00000000E+00  0.00000000E+00  0.00000000E+00
  0.00000000E+00  0.00000000E+00  0.00000000E+00
  0.00000000E+00  0.00000000E+00  0.00000000E+00
