Cu Ir Cu                                
   1.00000000000000     
    10.9200000762999991    0.0000000000000000    0.0000000000000000
     0.0000000000000000    7.7216000556999997    0.0000000000000000
     0.0000000000000000    0.0000000000000000   18.8607997894000015
   Cu   Ir   Cu
    16     1    19
Selective dynamics
Direct
  0.9990765815237027  0.9995691623417964  0.2037343371532164   T   T   T
  0.1645853522825690  0.1653702332099577  0.1404489306063461   T   T   T
  0.1666699946229926  0.1666699946535033  0.0000000000000000   F   F   F
  0.0000000000000000  0.0000000000000000  0.0682300030947403   F   F   F
  0.3333327706734615  0.9984754440741668  0.2053676263415121   T   T   T
  0.5020741648858950  0.1653633176669838  0.1404460566374158   T   T   T
  0.4999999999862652  0.1666699946535033  0.0000000000000000   F   F   F
  0.3333300053632726  0.0000000000000000  0.0682300030947403   F   F   F
  0.6675928243991455  0.9995660952516700  0.2037336575794380   T   T   T
  0.8333564460399006  0.1658963383642341  0.1406071535526063   T   T   T
  0.8333299755876311  0.1666699946535033  0.0000000000000000   F   F   F
  0.6666700243711574  0.0000000000000000  0.0682300030947403   F   F   F
  0.9993766556876206  0.3343880362310397  0.2043552765303915   T   T   T
  0.1649761551816546  0.5001679173707471  0.1404493532621920   T   T   T
  0.1666699946229926  0.5000000000194262  0.0000000000000000   F   F   F
  0.0000000000000000  0.3333300053659229  0.0682300030947403   F   F   F
  0.3333342764926708  0.3325399465829550  0.2042600488112836   T   T   T
  0.5016844852090283  0.5001724518558444  0.1404470265331944   T   T   T
  0.4999999999862652  0.5000000000194262  0.0000000000000000   F   F   F
  0.3333300053632726  0.3333300053659229  0.0682300030947403   F   F   F
  0.6672525508082696  0.3344029582125276  0.2042853913573499   T   T   T
  0.8333310117059445  0.4998585736247648  0.1404205785302433   T   T   T
  0.8333299755876311  0.5000000000194262  0.0000000000000000   F   F   F
  0.6666700243711574  0.3333300053659229  0.0682300030947403   F   F   F
  0.9991939854432739  0.6661984474032028  0.2037668131144978   T   T   T
  0.1670768606471036  0.8344002451871114  0.1403578468759824   T   T   T
  0.1666699946229926  0.8333299755987795  0.0000000000000000   F   F   F
  0.0000000000000000  0.6666700243299957  0.0682300030947403   F   F   F
  0.3333300785152170  0.6667249912983679  0.2053960719031153   T   T   T
  0.4995896520509647  0.8343987481328491  0.1403562879808755   T   T   T
  0.4999999999862652  0.8333299755987795  0.0000000000000000   F   F   F
  0.3333300053632726  0.6666700243299957  0.0682300030947403   F   F   F
  0.6674638921133470  0.6662055523944829  0.2037708098652989   T   T   T
  0.8333356626598495  0.8345101873653968  0.1408452952233387   T   T   T
  0.8333299755876311  0.8333299755987795  0.0000000000000000   F   F   F
  0.6666700243711574  0.6666700243299957  0.0682300030947403   F   F   F
 
  0.00000000E+00  0.00000000E+00  0.00000000E+00
  0.00000000E+00  0.00000000E+00  0.00000000E+00
  0.00000000E+00  0.00000000E+00  0.00000000E+00
  0.00000000E+00  0.00000000E+00  0.00000000E+00
  0.00000000E+00  0.00000000E+00  0.00000000E+00
  0.00000000E+00  0.00000000E+00  0.00000000E+00
  0.00000000E+00  0.00000000E+00  0.00000000E+00
  0.00000000E+00  0.00000000E+00  0.00000000E+00
  0.00000000E+00  0.00000000E+00  0.00000000E+00
  0.00000000E+00  0.00000000E+00  0.00000000E+00
  0.00000000E+00  0.00000000E+00  0.00000000E+00
  0.00000000E+00  0.00000000E+00  0.00000000E+00
  0.00000000E+00  0.00000000E+00  0.00000000E+00
  0.00000000E+00  0.00000000E+00  0.00000000E+00
  0.00000000E+00  0.00000000E+00  0.00000000E+00
  0.00000000E+00  0.00000000E+00  0.00000000E+00
  0.00000000E+00  0.00000000E+00  0.00000000E+00
  0.00000000E+00  0.00000000E+00  0.00000000E+00
  0.00000000E+00  0.00000000E+00  0.00000000E+00
  0.00000000E+00  0.00000000E+00  0.00000000E+00
  0.00000000E+00  0.00000000E+00  0.00000000E+00
  0.00000000E+00  0.00000000E+00  0.00000000E+00
  0.00000000E+00  0.00000000E+00  0.00000000E+00
  0.00000000E+00  0.00000000E+00  0.00000000E+00
  0.00000000E+00  0.00000000E+00  0.00000000E+00
  0.00000000E+00  0.00000000E+00  0.00000000E+00
  0.00000000E+00  0.00000000E+00  0.00000000E+00
  0.00000000E+00  0.00000000E+00  0.00000000E+00
  0.00000000E+00  0.00000000E+00  0.00000000E+00
  0.00000000E+00  0.00000000E+00  0.00000000E+00
  0.00000000E+00  0.00000000E+00  0.00000000E+00
  0.00000000E+00  0.00000000E+00  0.00000000E+00
  0.00000000E+00  0.00000000E+00  0.00000000E+00
  0.00000000E+00  0.00000000E+00  0.00000000E+00
  0.00000000E+00  0.00000000E+00  0.00000000E+00
  0.00000000E+00  0.00000000E+00  0.00000000E+00
