Ag Ga Ag O                              
   1.00000000000000     
     8.8247003554999992    0.0000000000000000    0.0000000000000000
    -4.4123501777999996    7.6424146886999997    0.0000000000000000
     0.0000000000000000    0.0000000000000000   22.2052993773999994
   Ag   Ga   Ag   O 
    17     1    18     1
Selective dynamics
Direct
     0.0000000000000000    0.0000000000000000    0.0000000000000000   F   F   F
     0.0033271634790517    0.0042528114979574    0.3236869003067264   T   T   T
     0.2219924083188791    0.1113778520002463    0.2149077221478318   T   T   T
     0.1111100018250966    0.2222200036476778    0.1081599965476912   F   F   F
     0.3333300053827557    0.0000000000000000    0.0000000000000000   F   F   F
     0.3339414143212401    0.0036175970478353    0.3228631921376119   T   T   T
     0.5575252530689517    0.1146774557642421    0.2162171365533823   T   T   T
     0.4444400072078523    0.2222200036476778    0.1081599965476912   F   F   F
     0.6666700243632988    0.0000000000000000    0.0000000000000000   F   F   F
     0.6667452294155500    0.0000383843597151    0.3225730190904565   T   T   T
     0.8889313500660806    0.1111299334391005    0.2159155258072878   T   T   T
     0.7777799963856893    0.2222200036476778    0.1081599965476912   F   F   F
     0.9999999999896119    0.3333300054715238    0.0000000000000000   F   F   F
     0.0033270493439836    0.3324042954540631    0.3236858894691554   T   T   T
     0.2219865653064836    0.4439523088021828    0.2149114474523688   T   T   T
     0.1111100017295215    0.5555599927438948    0.1081599965476912   F   F   F
     0.3333300054856849    0.3333300054715238    0.0000000000000000   F   F   F
     0.3224541338223477    0.3278919296019611    0.3240300636166371   T   T   T
     0.5535659317513352    0.4434517248236561    0.2178078176151229   T   T   T
     0.4444400072255874    0.5555599927438948    0.1081599965476912   F   F   F
     0.6666700244662280    0.3333300054715238    0.0000000000000000   F   F   F
     0.6590573993939614    0.3192092982743980    0.3277136360269084   T   T   T
     0.8885296000962914    0.4444564180216263    0.2175462400181395   T   T   T
     0.7777799964034244    0.5555599927438948    0.1081599965476912   F   F   F
     0.9999999999660858    0.6666700244012347    0.0000000000000000   F   F   F
     0.0174598225955982    0.6753976209832576    0.3280505336188789   T   T   T
     0.2197473118116753    0.7765387912249044    0.2169943883966045   T   T   T
     0.1111100017911895    0.8888900280489196    0.1081599965476912   F   F   F
     0.3333300054621589    0.6666700244012347    0.0000000000000000   F   F   F
     0.3339410462149591    0.6636590128032229    0.3228624602885789   T   T   T
     0.5575287971859206    0.7761803817473895    0.2162178035354100   T   T   T
     0.4444400072872554    0.8888900280489196    0.1081599965476912   F   F   F
     0.6666700244427020    0.6666700244012347    0.0000000000000000   F   F   F
     0.6590617445012324    0.6731870693016193    0.3277183155265249   T   T   T
     0.8885506780310740    0.7774223470274521    0.2175444451191288   T   T   T
     0.7777799964650924    0.8888900280489196    0.1081599965476912   F   F   F
     0.7796739468785814    0.5564996639414569    0.3797280356954173   T   T   T
 
  0.00000000E+00  0.00000000E+00  0.00000000E+00
  0.00000000E+00  0.00000000E+00  0.00000000E+00
  0.00000000E+00  0.00000000E+00  0.00000000E+00
  0.00000000E+00  0.00000000E+00  0.00000000E+00
  0.00000000E+00  0.00000000E+00  0.00000000E+00
  0.00000000E+00  0.00000000E+00  0.00000000E+00
  0.00000000E+00  0.00000000E+00  0.00000000E+00
  0.00000000E+00  0.00000000E+00  0.00000000E+00
  0.00000000E+00  0.00000000E+00  0.00000000E+00
  0.00000000E+00  0.00000000E+00  0.00000000E+00
  0.00000000E+00  0.00000000E+00  0.00000000E+00
  0.00000000E+00  0.00000000E+00  0.00000000E+00
  0.00000000E+00  0.00000000E+00  0.00000000E+00
  0.00000000E+00  0.00000000E+00  0.00000000E+00
  0.00000000E+00  0.00000000E+00  0.00000000E+00
  0.00000000E+00  0.00000000E+00  0.00000000E+00
  0.00000000E+00  0.00000000E+00  0.00000000E+00
  0.00000000E+00  0.00000000E+00  0.00000000E+00
  0.00000000E+00  0.00000000E+00  0.00000000E+00
  0.00000000E+00  0.00000000E+00  0.00000000E+00
  0.00000000E+00  0.00000000E+00  0.00000000E+00
  0.00000000E+00  0.00000000E+00  0.00000000E+00
  0.00000000E+00  0.00000000E+00  0.00000000E+00
  0.00000000E+00  0.00000000E+00  0.00000000E+00
  0.00000000E+00  0.00000000E+00  0.00000000E+00
  0.00000000E+00  0.00000000E+00  0.00000000E+00
  0.00000000E+00  0.00000000E+00  0.00000000E+00
  0.00000000E+00  0.00000000E+00  0.00000000E+00
  0.00000000E+00  0.00000000E+00  0.00000000E+00
  0.00000000E+00  0.00000000E+00  0.00000000E+00
  0.00000000E+00  0.00000000E+00  0.00000000E+00
  0.00000000E+00  0.00000000E+00  0.00000000E+00
  0.00000000E+00  0.00000000E+00  0.00000000E+00
  0.00000000E+00  0.00000000E+00  0.00000000E+00
  0.00000000E+00  0.00000000E+00  0.00000000E+00
  0.00000000E+00  0.00000000E+00  0.00000000E+00
  0.00000000E+00  0.00000000E+00  0.00000000E+00
