Pt Au Pt                                
   1.00000000000000     
     8.4428997040000002    0.0000000000000000    0.0000000000000000
    -4.2214498520000001    7.3117656252999996    0.0000000000000000
     0.0000000000000000    0.0000000000000000   21.8936004639000004
   Pt   Au   Pt
    17     1    18
Selective dynamics
Direct
  0.0000000000000000  0.0000000000000000  0.0000000000000000   F   F   F
 -0.0019781377469026 -0.0022787901680608  0.3165720726049783   T   T   T
  0.2232034483074219  0.1130662115857419  0.2115370493741443   T   T   T
  0.1111100018289619  0.2222200036579167  0.1049600020238373   F   F   F
  0.3333300054087687  0.0000000000000000  0.0000000000000000   F   F   F
  0.3329845697631251 -0.0022835571470343  0.3165714503914001   T   T   T
  0.5554368907097561  0.1112236993504685  0.2100336042769732   T   T   T
  0.4444400072377235  0.2222200036579167  0.1049600020238373   F   F   F
  0.6666700244388011  0.0000000000000000  0.0000000000000000   F   F   F
  0.6666766862220076 -0.0000146481166333  0.3168324094690662   T   T   T
  0.8891148452534411  0.1112074158737607  0.2100358692893886   T   T   T
  0.7777799964201932  0.2222200036579167  0.1049600020238373   F   F   F
  0.9999999999706688  0.3333300053501134  0.0000000000000000   F   F   F
 -0.0019520697374950  0.3336807965625090  0.3165629404031634   T   T   T
  0.2232107072126089  0.4434466220877097  0.2115352759797167   T   T   T
  0.1111100017987212  0.5555599927799051  0.1049600020238373   F   F   F
  0.3333300053794375  0.3333300053501134  0.0000000000000000   F   F   F
  0.3333364010699699  0.3333432206450728  0.3297397678497602   T   T   T
  0.5535871917362019  0.4434617843045827  0.2115418986339432   T   T   T
  0.4444400072074828  0.5555599927799051  0.1049600020238373   F   F   F
  0.6666700244094699  0.3333300053501134  0.0000000000000000   F   F   F
  0.6689635506365473  0.3336763407154924  0.3165658153539554   T   T   T
  0.8891756924586256  0.4450207509364613  0.2094698696061843   T   T   T
  0.7777799963899525  0.5555599927799051  0.1049600020238373   F   F   F
  0.9999999999925109  0.6666700244238228  0.0000000000000000   F   F   F
 -0.0000068875171848  0.6666797377910773  0.3169348126136695   T   T   T
  0.2216532513347099  0.7774835372941964  0.2094738442625567   T   T   T
  0.1111100017530902  0.8888900279449743  0.1049600020238373   F   F   F
  0.3333300054012795  0.6666700244238228  0.0000000000000000   F   F   F
  0.3330003173053111  0.6686381702893343  0.3165723433007597   T   T   T
  0.5554559680166558  0.7775377328882841  0.2100418886905584   T   T   T
  0.4444400071618517  0.8888900279449743  0.1049600020238373   F   F   F
  0.6666700244313120  0.6666700244238228  0.0000000000000000   F   F   F
  0.6689470744236847  0.6686441210454788  0.3165885050054217   T   T   T
  0.8891777901074688  0.7774767293042557  0.2094816120216101   T   T   T
  0.7777799963443215  0.8888900279449743  0.1049600020238373   F   F   F
 
  0.00000000E+00  0.00000000E+00  0.00000000E+00
  0.00000000E+00  0.00000000E+00  0.00000000E+00
  0.00000000E+00  0.00000000E+00  0.00000000E+00
  0.00000000E+00  0.00000000E+00  0.00000000E+00
  0.00000000E+00  0.00000000E+00  0.00000000E+00
  0.00000000E+00  0.00000000E+00  0.00000000E+00
  0.00000000E+00  0.00000000E+00  0.00000000E+00
  0.00000000E+00  0.00000000E+00  0.00000000E+00
  0.00000000E+00  0.00000000E+00  0.00000000E+00
  0.00000000E+00  0.00000000E+00  0.00000000E+00
  0.00000000E+00  0.00000000E+00  0.00000000E+00
  0.00000000E+00  0.00000000E+00  0.00000000E+00
  0.00000000E+00  0.00000000E+00  0.00000000E+00
  0.00000000E+00  0.00000000E+00  0.00000000E+00
  0.00000000E+00  0.00000000E+00  0.00000000E+00
  0.00000000E+00  0.00000000E+00  0.00000000E+00
  0.00000000E+00  0.00000000E+00  0.00000000E+00
  0.00000000E+00  0.00000000E+00  0.00000000E+00
  0.00000000E+00  0.00000000E+00  0.00000000E+00
  0.00000000E+00  0.00000000E+00  0.00000000E+00
  0.00000000E+00  0.00000000E+00  0.00000000E+00
  0.00000000E+00  0.00000000E+00  0.00000000E+00
  0.00000000E+00  0.00000000E+00  0.00000000E+00
  0.00000000E+00  0.00000000E+00  0.00000000E+00
  0.00000000E+00  0.00000000E+00  0.00000000E+00
  0.00000000E+00  0.00000000E+00  0.00000000E+00
  0.00000000E+00  0.00000000E+00  0.00000000E+00
  0.00000000E+00  0.00000000E+00  0.00000000E+00
  0.00000000E+00  0.00000000E+00  0.00000000E+00
  0.00000000E+00  0.00000000E+00  0.00000000E+00
  0.00000000E+00  0.00000000E+00  0.00000000E+00
  0.00000000E+00  0.00000000E+00  0.00000000E+00
  0.00000000E+00  0.00000000E+00  0.00000000E+00
  0.00000000E+00  0.00000000E+00  0.00000000E+00
  0.00000000E+00  0.00000000E+00  0.00000000E+00
  0.00000000E+00  0.00000000E+00  0.00000000E+00
