Au  C  H  O                             
   1.00000000000000     
     8.8458995818999995    0.0000000000000000    0.0000000000000000
    -4.4229497909999997    7.6607737573000003    0.0000000000000000
     0.0000000000000000    0.0000000000000000   22.2227001189999989
   Au   C    H    O 
    36     1     4     1
Selective dynamics
Direct
  0.0000000000000000  0.0000000000000000  0.0000000000000000   F   F   F
 -0.0050361382615099 -0.0037088637089574  0.3270221332766744   T   T   T
  0.2222793223744116  0.1130238565629048  0.2186442032318602   T   T   T
  0.1111100036335770  0.2222200072646459  0.1083399993748557   F   F   F
  0.3333300181287697  0.0000000000000000  0.0000000000000000   F   F   F
  0.3305640485882049  0.9970386976795398  0.3285888498629143   T   T   T
  0.5553191655629759  0.1123021719668388  0.2179987366237238   T   T   T
  0.4444399948572268  0.2222200072646459  0.1083399993748557   F   F   F
  0.6666700087876549  0.0000000000000000  0.0000000000000000   F   F   F
  0.6661429722652210 -0.0014377745525870  0.3302771136262300   T   T   T
  0.8886698682384632  0.1103995051256364  0.2168561009521875   T   T   T
  0.7777800124212320  0.2222200072646459  0.1083399993748557   F   F   F
  0.9999999925351943  0.3333300031953925  0.0000000000000000   F   F   F
 -0.0048703478766030  0.3301665117367696  0.3270876463241909   T   T   T
  0.2221743352948485  0.4415409408554815  0.2187241397490318   T   T   T
  0.1111100262929554  0.5555600161073073  0.1083399993748557   F   F   F
  0.3333300106639641  0.3333300031953925  0.0000000000000000   F   F   F
  0.3229693169863120  0.3276758079805264  0.3377066172251939   T   T   T
  0.5515189917684108  0.4418890780157321  0.2224987145878951   T   T   T
  0.4444400175166052  0.5555600161073073  0.1083399993748557   F   F   F
  0.6666700147754128  0.3333300031953925  0.0000000000000000   F   F   F
  0.6546906271306803  0.3098643409007955  0.3299732252379117   T   T   T
  0.8862480000467031  0.4442184506825385  0.2191479576082094   T   T   T
  0.7777800080624431  0.5555600161073073  0.1083399993748557   F   F   F
  0.0000000093958050  0.6666700275717332  0.0000000000000000   F   F   F
  0.0170657883626271  0.6740977279387516  0.3308524428946578   T   T   T
  0.2180362994446459  0.7751278965616007  0.2181693741291259   T   T   T
  0.1111100207962252  0.8888900503700583  0.1083399993748557   F   F   F
  0.3333300276376221  0.6666700275717332  0.0000000000000000   F   F   F
  0.3313286259966432  0.6657529713329348  0.3285846969960081   T   T   T
  0.5553528325658740  0.7750076720546223  0.2178889271342899   T   T   T
  0.4444400120198750  0.8888900503700583  0.1083399993748557   F   F   F
  0.6666700181834599  0.6666700275717332  0.0000000000000000   F   F   F
  0.6552105532843869  0.6760430865198634  0.3301635135188133   T   T   T
  0.8862646898701123  0.7739958535224767  0.2191395724678091   T   T   T
  0.7777800026787602  0.8888900503700583  0.1083399993748557   F   F   F
  0.3127922948057449  0.3220050308249747  0.4342814066150824   T   T   T
  0.3910057334087578  0.2650391571291354  0.4485872269884460   T   T   T
  0.3682076484159918  0.4567375618758262  0.4489689931531475   T   T   T
  0.1769785981412336  0.2426547223013699  0.4478393727025461   T   T   T
  0.7795172675957222  0.5500467658063857  0.4399424650962783   T   T   T
  0.7742018521643191  0.5508149588413737  0.3963561717524365   T   T   T
 
  0.00000000E+00  0.00000000E+00  0.00000000E+00
  0.00000000E+00  0.00000000E+00  0.00000000E+00
  0.00000000E+00  0.00000000E+00  0.00000000E+00
  0.00000000E+00  0.00000000E+00  0.00000000E+00
  0.00000000E+00  0.00000000E+00  0.00000000E+00
  0.00000000E+00  0.00000000E+00  0.00000000E+00
  0.00000000E+00  0.00000000E+00  0.00000000E+00
  0.00000000E+00  0.00000000E+00  0.00000000E+00
  0.00000000E+00  0.00000000E+00  0.00000000E+00
  0.00000000E+00  0.00000000E+00  0.00000000E+00
  0.00000000E+00  0.00000000E+00  0.00000000E+00
  0.00000000E+00  0.00000000E+00  0.00000000E+00
  0.00000000E+00  0.00000000E+00  0.00000000E+00
  0.00000000E+00  0.00000000E+00  0.00000000E+00
  0.00000000E+00  0.00000000E+00  0.00000000E+00
  0.00000000E+00  0.00000000E+00  0.00000000E+00
  0.00000000E+00  0.00000000E+00  0.00000000E+00
  0.00000000E+00  0.00000000E+00  0.00000000E+00
  0.00000000E+00  0.00000000E+00  0.00000000E+00
  0.00000000E+00  0.00000000E+00  0.00000000E+00
  0.00000000E+00  0.00000000E+00  0.00000000E+00
  0.00000000E+00  0.00000000E+00  0.00000000E+00
  0.00000000E+00  0.00000000E+00  0.00000000E+00
  0.00000000E+00  0.00000000E+00  0.00000000E+00
  0.00000000E+00  0.00000000E+00  0.00000000E+00
  0.00000000E+00  0.00000000E+00  0.00000000E+00
  0.00000000E+00  0.00000000E+00  0.00000000E+00
  0.00000000E+00  0.00000000E+00  0.00000000E+00
  0.00000000E+00  0.00000000E+00  0.00000000E+00
  0.00000000E+00  0.00000000E+00  0.00000000E+00
  0.00000000E+00  0.00000000E+00  0.00000000E+00
  0.00000000E+00  0.00000000E+00  0.00000000E+00
  0.00000000E+00  0.00000000E+00  0.00000000E+00
  0.00000000E+00  0.00000000E+00  0.00000000E+00
  0.00000000E+00  0.00000000E+00  0.00000000E+00
  0.00000000E+00  0.00000000E+00  0.00000000E+00
  0.00000000E+00  0.00000000E+00  0.00000000E+00
  0.00000000E+00  0.00000000E+00  0.00000000E+00
  0.00000000E+00  0.00000000E+00  0.00000000E+00
  0.00000000E+00  0.00000000E+00  0.00000000E+00
  0.00000000E+00  0.00000000E+00  0.00000000E+00
  0.00000000E+00  0.00000000E+00  0.00000000E+00
