Pt111-CH3-OH                            
   1.00000000000000     
     8.4428997040000002    0.0000000000000000    0.0000000000000000
    -4.2214498520000001    7.3117656252999996    0.0000000000000000
     0.0000000000000000    0.0000000000000000   21.8936004639000004
   Pt   C    H    O 
    36     1     4     1
Selective dynamics
Direct
  0.0000000000000000  0.0000000000000000  0.0000000000000000   F   F   F
 -0.0033857790332482 -0.0018451077343574  0.3147498768349252   T   T   T
  0.2221173485253955  0.1116906918135860  0.2104186717269643   T   T   T
  0.1111100036069175  0.2222200072138278  0.1049599979587228   F   F   F
  0.3333333450196818  0.0000000000000000  0.0000000000000000   F   F   F
  0.3320189080160194 -0.0017635133261027  0.3163580718158018   T   T   T
  0.5543896938316029  0.1106363586025514  0.2097224650873309   T   T   T
  0.4444400156484747  0.2222200072138278  0.1049599979587228   F   F   F
  0.6666666900393636  0.0000000000000000  0.0000000000000000   F   F   F
  0.6649213721631276  0.0006966586146141  0.3170087551413714   T   T   T
  0.8874146434343981  0.1107056486144526  0.2097017266522779   T   T   T
  0.7777800266243986  0.2222200072138278  0.1049599979587228   F   F   F
  0.9999999997345910  0.3333333444888709  0.0000000000000000   F   F   F
  0.9964577876549041  0.3335656090519616  0.3166057612963092   T   T   T
  0.2219650930863617  0.4433103751136546  0.2118617040960690   T   T   T
  0.1111100040315094  0.5555600190389498  0.1049599979587228   F   F   F
  0.3333333447542728  0.3333333444888709  0.0000000000000000   F   F   F
  0.3330746395672460  0.3349438153797679  0.3229260952420604   T   T   T
  0.5522588529354669  0.4449222745961151  0.2142478231742773   T   T   T
  0.4444400148886416  0.5555600190389498  0.1049599979587228   F   F   F
  0.6666666897739546  0.3333333444888709  0.0000000000000000   F   F   F
  0.6665651982896638  0.3330394193028332  0.3167584727163313   T   T   T
  0.8873048322844205  0.4439366879920266  0.2097139698073096   T   T   T
  0.7777800270489976  0.5555600190389498  0.1049599979587228   F   F   F
  0.0000000001530154  0.6666666903453944  0.0000000000000000   F   F   F
 -0.0003880923104433  0.6669811866910946  0.3169374403785598   T   T   T
  0.2207740464968280  0.7768401666130355  0.2095876478285387   T   T   T
  0.1111100037630166  0.8888900305435214  0.1049599979587228   F   F   F
  0.3333333451726972  0.6666666903453944  0.0000000000000000   F   F   F
  0.3317423588655724  0.6686907984941087  0.3170268512997542   T   T   T
  0.5550904422710788  0.7761027409744299  0.2118135074496871   T   T   T
  0.4444400158045809  0.8888900305435214  0.1049599979587228   F   F   F
  0.6666666901923790  0.6666666903453944  0.0000000000000000   F   F   F
  0.6685542830560975  0.6699479452764003  0.3275310236890039   T   T   T
  0.8849823422366622  0.7747109102788188  0.2107034068028881   T   T   T
  0.7777800267805048  0.8888900305435214  0.1049599979587228   F   F   F
  0.6922536103070178  0.6927572767337715  0.4223638461267240   T   T   T
  0.6979029053501378  0.5740474730871297  0.4393033666532935   T   T   T
  0.5729426184532028  0.6968388751217168  0.4396804493122117   T   T   T
  0.8175386219992101  0.8185668045619924  0.4342358445740842   T   T   T
  0.3847806821000022  0.3915918244940380  0.4344654706197855   T   T   T
  0.2865256089523036  0.2875719860945587  0.4134978286078269   T   T   T
 
  0.00000000E+00  0.00000000E+00  0.00000000E+00
  0.00000000E+00  0.00000000E+00  0.00000000E+00
  0.00000000E+00  0.00000000E+00  0.00000000E+00
  0.00000000E+00  0.00000000E+00  0.00000000E+00
  0.00000000E+00  0.00000000E+00  0.00000000E+00
  0.00000000E+00  0.00000000E+00  0.00000000E+00
  0.00000000E+00  0.00000000E+00  0.00000000E+00
  0.00000000E+00  0.00000000E+00  0.00000000E+00
  0.00000000E+00  0.00000000E+00  0.00000000E+00
  0.00000000E+00  0.00000000E+00  0.00000000E+00
  0.00000000E+00  0.00000000E+00  0.00000000E+00
  0.00000000E+00  0.00000000E+00  0.00000000E+00
  0.00000000E+00  0.00000000E+00  0.00000000E+00
  0.00000000E+00  0.00000000E+00  0.00000000E+00
  0.00000000E+00  0.00000000E+00  0.00000000E+00
  0.00000000E+00  0.00000000E+00  0.00000000E+00
  0.00000000E+00  0.00000000E+00  0.00000000E+00
  0.00000000E+00  0.00000000E+00  0.00000000E+00
  0.00000000E+00  0.00000000E+00  0.00000000E+00
  0.00000000E+00  0.00000000E+00  0.00000000E+00
  0.00000000E+00  0.00000000E+00  0.00000000E+00
  0.00000000E+00  0.00000000E+00  0.00000000E+00
  0.00000000E+00  0.00000000E+00  0.00000000E+00
  0.00000000E+00  0.00000000E+00  0.00000000E+00
  0.00000000E+00  0.00000000E+00  0.00000000E+00
  0.00000000E+00  0.00000000E+00  0.00000000E+00
  0.00000000E+00  0.00000000E+00  0.00000000E+00
  0.00000000E+00  0.00000000E+00  0.00000000E+00
  0.00000000E+00  0.00000000E+00  0.00000000E+00
  0.00000000E+00  0.00000000E+00  0.00000000E+00
  0.00000000E+00  0.00000000E+00  0.00000000E+00
  0.00000000E+00  0.00000000E+00  0.00000000E+00
  0.00000000E+00  0.00000000E+00  0.00000000E+00
  0.00000000E+00  0.00000000E+00  0.00000000E+00
  0.00000000E+00  0.00000000E+00  0.00000000E+00
  0.00000000E+00  0.00000000E+00  0.00000000E+00
  0.00000000E+00  0.00000000E+00  0.00000000E+00
  0.00000000E+00  0.00000000E+00  0.00000000E+00
  0.00000000E+00  0.00000000E+00  0.00000000E+00
  0.00000000E+00  0.00000000E+00  0.00000000E+00
  0.00000000E+00  0.00000000E+00  0.00000000E+00
  0.00000000E+00  0.00000000E+00  0.00000000E+00
