Au In Au O  C  H                        
   1.00000000000000     
     8.8458995818999995    0.0000000000000000    0.0000000000000000
    -4.4229497909999997    7.6607737573000003    0.0000000000000000
     0.0000000000000000    0.0000000000000000   22.2227001189999989
   Au   In   Au   O    C    H 
    17     1    18     1     1     4
Selective dynamics
Direct
     0.0000000000000000    0.0000000000000000    0.0000000000000000   F   F   F
     0.0201441502962461    0.0383074055617126    0.3306806093957538   T   T   T
     0.2316383865375918    0.1299303768043360    0.2183256776684411   T   T   T
     0.1111100036335770    0.2222200072646459    0.1083399993748557   F   F   F
     0.3333300181287697    0.0000000000000000    0.0000000000000000   F   F   F
     0.3515283063338192    0.0383235741852100    0.3306880873988419   T   T   T
     0.5638014445682122    0.1283776093554715    0.2179688068961634   T   T   T
     0.4444399948572268    0.2222200072646459    0.1083399993748557   F   F   F
     0.6666700087876549    0.0000000000000000    0.0000000000000000   F   F   F
     0.6818152645823069    0.0302879384902759    0.3297681967816319   T   T   T
     0.8979060573145492    0.1283730677648642    0.2179680748634350   T   T   T
     0.7777800124212320    0.2222200072646459    0.1083399993748557   F   F   F
     0.9999999925351943    0.3333300031953925    0.0000000000000000   F   F   F
     0.0166907715125703    0.3613958027148073    0.3307923444416969   T   T   T
     0.2324440542905903    0.4588626581311192    0.2213639327633881   T   T   T
     0.1111100262929554    0.5555600161073073    0.1083399993748557   F   F   F
     0.3333300106639641    0.3333300031953925    0.0000000000000000   F   F   F
     0.2979747455422304    0.2626596112888807    0.4060199415291280   T   T   T
     0.5597555131684918    0.4588665610334791    0.2213663188463509   T   T   T
     0.4444400175166052    0.5555600161073073    0.1083399993748557   F   F   F
     0.6666700147754128    0.3333300031953925    0.0000000000000000   F   F   F
     0.6780331410031593    0.3614033487702745    0.3307983613818218   T   T   T
     0.8964891749222206    0.4596486948290608    0.2185740998709446   T   T   T
     0.7777800080624431    0.5555600161073073    0.1083399993748557   F   F   F
     0.0000000093958050    0.6666700275717332    0.0000000000000000   F   F   F
     0.0126054447328626    0.6918776841984372    0.3302628575586605   T   T   T
     0.2307261046684877    0.7950089115007202    0.2186160859084199   T   T   T
     0.1111100207962252    0.8888900503700583    0.1083399993748557   F   F   F
     0.3333300276376221    0.6666700275717332    0.0000000000000000   F   F   F
     0.3408909494980240    0.7030242785970444    0.3282297903047386   T   T   T
     0.5633596837748717    0.7933972663149229    0.2192359184037612   T   T   T
     0.4444400120198750    0.8888900503700583    0.1083399993748557   F   F   F
     0.6666700181834599    0.6666700275717332    0.0000000000000000   F   F   F
     0.6954882005482997    0.7030434740448773    0.3282244399636440   T   T   T
     0.8976348964410099    0.7950292992847119    0.2186112299612226   T   T   T
     0.7777800026787602    0.8888900503700583    0.1083399993748557   F   F   F
     0.4394195671475926    0.5454564347418972    0.3990737884706397   T   T   T
     0.2716820726987315    0.2100401522374987    0.5036197690842371   T   T   T
     0.2010661214769769    0.0688313304540332    0.5100208282672767   T   T   T
     0.4017076537002435    0.2676664915870985    0.5234283618144920   T   T   T
     0.1992092326614887    0.2676884513835000    0.5234154554698673   T   T   T
     0.4678347173251403    0.6022813766624434    0.4381441088944901   T   T   T
 
  0.00000000E+00  0.00000000E+00  0.00000000E+00
  0.00000000E+00  0.00000000E+00  0.00000000E+00
  0.00000000E+00  0.00000000E+00  0.00000000E+00
  0.00000000E+00  0.00000000E+00  0.00000000E+00
  0.00000000E+00  0.00000000E+00  0.00000000E+00
  0.00000000E+00  0.00000000E+00  0.00000000E+00
  0.00000000E+00  0.00000000E+00  0.00000000E+00
  0.00000000E+00  0.00000000E+00  0.00000000E+00
  0.00000000E+00  0.00000000E+00  0.00000000E+00
  0.00000000E+00  0.00000000E+00  0.00000000E+00
  0.00000000E+00  0.00000000E+00  0.00000000E+00
  0.00000000E+00  0.00000000E+00  0.00000000E+00
  0.00000000E+00  0.00000000E+00  0.00000000E+00
  0.00000000E+00  0.00000000E+00  0.00000000E+00
  0.00000000E+00  0.00000000E+00  0.00000000E+00
  0.00000000E+00  0.00000000E+00  0.00000000E+00
  0.00000000E+00  0.00000000E+00  0.00000000E+00
  0.00000000E+00  0.00000000E+00  0.00000000E+00
  0.00000000E+00  0.00000000E+00  0.00000000E+00
  0.00000000E+00  0.00000000E+00  0.00000000E+00
  0.00000000E+00  0.00000000E+00  0.00000000E+00
  0.00000000E+00  0.00000000E+00  0.00000000E+00
  0.00000000E+00  0.00000000E+00  0.00000000E+00
  0.00000000E+00  0.00000000E+00  0.00000000E+00
  0.00000000E+00  0.00000000E+00  0.00000000E+00
  0.00000000E+00  0.00000000E+00  0.00000000E+00
  0.00000000E+00  0.00000000E+00  0.00000000E+00
  0.00000000E+00  0.00000000E+00  0.00000000E+00
  0.00000000E+00  0.00000000E+00  0.00000000E+00
  0.00000000E+00  0.00000000E+00  0.00000000E+00
  0.00000000E+00  0.00000000E+00  0.00000000E+00
  0.00000000E+00  0.00000000E+00  0.00000000E+00
  0.00000000E+00  0.00000000E+00  0.00000000E+00
  0.00000000E+00  0.00000000E+00  0.00000000E+00
  0.00000000E+00  0.00000000E+00  0.00000000E+00
  0.00000000E+00  0.00000000E+00  0.00000000E+00
  0.00000000E+00  0.00000000E+00  0.00000000E+00
  0.00000000E+00  0.00000000E+00  0.00000000E+00
  0.00000000E+00  0.00000000E+00  0.00000000E+00
  0.00000000E+00  0.00000000E+00  0.00000000E+00
  0.00000000E+00  0.00000000E+00  0.00000000E+00
  0.00000000E+00  0.00000000E+00  0.00000000E+00
