Os  C  H  O                             
   1.00000000000000     
     8.2840995788999994    0.0000000000000000    0.0000000000000000
     0.0000000000000000    8.6992998122999996    0.0000000000000000
     0.0000000000000000    0.0000000000000000   21.3770999908000014
   Os   C    H    O 
    36     1     4     1
Selective dynamics
Direct
  0.0509300008989086  0.0000000000000000  0.0745799988626246   F   F   F
  0.2210483863168166  0.0000011049769623  0.1816640937277287   T   T   T
  0.0509892868190746 -0.0000029856482351  0.2896711289743626   T   T   T
  0.0509300008989086  0.2499999999913811  0.0000000000000000   F   F   F
  0.2175900041799537  0.2499999999913811  0.1118699982705422   F   F   F
  0.0510513732221740  0.2498667584566181  0.2204383267218746   T   T   T
  0.3842599987701618  0.0000000000000000  0.0745799988626246   F   F   F
  0.5510574348668308 -0.0000016344147864  0.1837037667012299   T   T   T
  0.3540195629278906 -0.0000013151338336  0.2918970023292217   T   T   T
  0.3842599987701618  0.2499999999913811  0.0000000000000000   F   F   F
  0.5509300231765195  0.2499999999913811  0.1118699982705422   F   F   F
  0.3817699177159750  0.2500309911333269  0.2223525618396264   T   T   T
  0.7175899744301901  0.0000000000000000  0.0745799988626246   F   F   F
  0.8810489111941963  0.0000016845901279  0.1816458240781554   T   T   T
  0.7480136812943571 -0.0000041416399916  0.2918905068561582   T   T   T
  0.7175899744301901  0.2499999999913811  0.0000000000000000   F   F   F
  0.8842599988365549  0.2499999999913811  0.1118699982705422   F   F   F
  0.7202733580274793  0.2501225325157042  0.2224186501149935   T   T   T
  0.0509300008989086  0.4999999999827551  0.0745799988626246   F   F   F
  0.2192817130035886  0.4999973477849470  0.1823905201966533   T   T   T
  0.0507017300627776  0.5000040381657133  0.2900790824154677   T   T   T
  0.0509300008989086  0.7499999999741362  0.0000000000000000   F   F   F
  0.2175900041799537  0.7499999999741362  0.1118699982705422   F   F   F
  0.0510521685064193  0.7501344902021383  0.2204376938047988   T   T   T
  0.3842599987701618  0.4999999999827551  0.0745799988626246   F   F   F
  0.5508095797207405  0.5000011956938203  0.1830992402619127   T   T   T
  0.3607839603389022  0.5000003206081156  0.2939758522032722   T   T   T
  0.3842599987701618  0.7499999999741362  0.0000000000000000   F   F   F
  0.5509300231765195  0.7499999999741362  0.1118699982705422   F   F   F
  0.3817751568964813  0.7499671858269291  0.2223532831336043   T   T   T
  0.7175899744301901  0.4999999999827551  0.0745799988626246   F   F   F
  0.8828190696581393  0.4999963515558504  0.1825845857102736   T   T   T
  0.7420702210507801  0.5000004849488021  0.2942232543261863   T   T   T
  0.7175899744301901  0.7499999999741362  0.0000000000000000   F   F   F
  0.8842599988365549  0.7499999999741362  0.1118699982705422   F   F   F
  0.7202662824428759  0.7498757610563095  0.2224193483341259   T   T   T
  0.1855783602222687  0.5000006915152209  0.4759402740070821   T   T   T
  0.1692545332478024  0.6025180798811358  0.5046058584467522   T   T   T
  0.1692525759891235  0.3974852825322132  0.5046074676654737   T   T   T
  0.3064987018131167  0.4999983819718365  0.4557731677641499   T   T   T
  0.0961078689115188  0.4999994159571932  0.4383902882345817   T   T   T
  0.5509821783067245  0.4999928564479909  0.3469686877132573   T   T   T
 
  0.00000000E+00  0.00000000E+00  0.00000000E+00
  0.00000000E+00  0.00000000E+00  0.00000000E+00
  0.00000000E+00  0.00000000E+00  0.00000000E+00
  0.00000000E+00  0.00000000E+00  0.00000000E+00
  0.00000000E+00  0.00000000E+00  0.00000000E+00
  0.00000000E+00  0.00000000E+00  0.00000000E+00
  0.00000000E+00  0.00000000E+00  0.00000000E+00
  0.00000000E+00  0.00000000E+00  0.00000000E+00
  0.00000000E+00  0.00000000E+00  0.00000000E+00
  0.00000000E+00  0.00000000E+00  0.00000000E+00
  0.00000000E+00  0.00000000E+00  0.00000000E+00
  0.00000000E+00  0.00000000E+00  0.00000000E+00
  0.00000000E+00  0.00000000E+00  0.00000000E+00
  0.00000000E+00  0.00000000E+00  0.00000000E+00
  0.00000000E+00  0.00000000E+00  0.00000000E+00
  0.00000000E+00  0.00000000E+00  0.00000000E+00
  0.00000000E+00  0.00000000E+00  0.00000000E+00
  0.00000000E+00  0.00000000E+00  0.00000000E+00
  0.00000000E+00  0.00000000E+00  0.00000000E+00
  0.00000000E+00  0.00000000E+00  0.00000000E+00
  0.00000000E+00  0.00000000E+00  0.00000000E+00
  0.00000000E+00  0.00000000E+00  0.00000000E+00
  0.00000000E+00  0.00000000E+00  0.00000000E+00
  0.00000000E+00  0.00000000E+00  0.00000000E+00
  0.00000000E+00  0.00000000E+00  0.00000000E+00
  0.00000000E+00  0.00000000E+00  0.00000000E+00
  0.00000000E+00  0.00000000E+00  0.00000000E+00
  0.00000000E+00  0.00000000E+00  0.00000000E+00
  0.00000000E+00  0.00000000E+00  0.00000000E+00
  0.00000000E+00  0.00000000E+00  0.00000000E+00
  0.00000000E+00  0.00000000E+00  0.00000000E+00
  0.00000000E+00  0.00000000E+00  0.00000000E+00
  0.00000000E+00  0.00000000E+00  0.00000000E+00
  0.00000000E+00  0.00000000E+00  0.00000000E+00
  0.00000000E+00  0.00000000E+00  0.00000000E+00
  0.00000000E+00  0.00000000E+00  0.00000000E+00
  0.00000000E+00  0.00000000E+00  0.00000000E+00
  0.00000000E+00  0.00000000E+00  0.00000000E+00
  0.00000000E+00  0.00000000E+00  0.00000000E+00
  0.00000000E+00  0.00000000E+00  0.00000000E+00
  0.00000000E+00  0.00000000E+00  0.00000000E+00
  0.00000000E+00  0.00000000E+00  0.00000000E+00
