Ni C  H  O                              
   1.00000000000000     
     6.0967998505000001    0.0000000000000000    0.0000000000000000
     0.0000000000000000    7.4670000076000003    0.0000000000000000
     0.0000000000000000    0.0000000000000000   25.0592002869000012
   Ni   C    H    O 
    45     1     4     1
Selective dynamics
Direct
  0.9566999999999979  0.0239600000000024  0.0000000000000000   F   F   F
  0.2900300000000016  0.0239600000000024  0.1146900000000031   F   F   F
  0.6283692048541608  0.0233718897209574  0.2308327540611640   T   T   T
  0.9651589522000957  0.0217460277556409  0.3479029319297434   T   T   T
  0.6233599999999981  0.0239600000000024  0.0573499999999996   F   F   F
  0.9584115143153137  0.0240758056592698  0.1728155864497352   T   T   T
  0.2951186953796238  0.0234693776889975  0.2883386538375212   T   T   T
  0.6331442312887716  0.0187714260584529  0.4048687521343690   T   T   T
  0.2900300000000016  0.1906200000000027  0.0286699999999982   F   F   F
  0.6233599999999981  0.1906200000000027  0.1433600000000013   F   F   F
  0.9618275258729245  0.1899012710182814  0.2602447910192829   T   T   T
  0.2924170444319856  0.1892804249838651  0.3737273958316789   T   T   T
  0.9566999999999979  0.1906200000000027  0.0860199999999978   F   F   F
  0.2935252524823800  0.1900948543498470  0.2015695767013068   T   T   T
  0.6324215929773214  0.1900557827915848  0.3172355428196602   T   T   T
  0.9566999999999979  0.3572899999999990  0.0000000000000000   F   F   F
  0.2900300000000016  0.3572899999999990  0.1146900000000031   F   F   F
  0.6283306536295505  0.3574118385749618  0.2307139393357865   T   T   T
  0.9653444310229736  0.3583532078846880  0.3478383913878602   T   T   T
  0.6233599999999981  0.3572899999999990  0.0573499999999996   F   F   F
  0.9581638702822364  0.3573152381679014  0.1728519585287770   T   T   T
  0.2953981696046506  0.3567691053144217  0.2885529409174764   T   T   T
  0.6326587471048396  0.3584137305490608  0.4047178236520362   T   T   T
  0.2900300000000016  0.5239600000000024  0.0286699999999982   F   F   F
  0.6233599999999981  0.5239600000000024  0.1433600000000013   F   F   F
  0.9611335732564633  0.5239841892933911  0.2600828931685478   T   T   T
  0.3005610355180423  0.5234122228262201  0.3739861683303942   T   T   T
  0.9566999999999979  0.5239600000000024  0.0860199999999978   F   F   F
  0.2933174421767075  0.5235867112484923  0.2015855798181898   T   T   T
  0.6328174250303321  0.5227454296257342  0.3176612850352711   T   T   T
  0.9566999999999979  0.6906200000000027  0.0000000000000000   F   F   F
  0.2900300000000016  0.6906200000000027  0.1146900000000031   F   F   F
  0.6281036086237747  0.6903164613126668  0.2300035866385583   T   T   T
  0.9667384560504869  0.6899920317842319  0.3482867484329272   T   T   T
  0.6233599999999981  0.6906200000000027  0.0573499999999996   F   F   F
  0.9584303761930064  0.6897391745316624  0.1727819074095564   T   T   T
  0.2953822948795692  0.6894088089484194  0.2880305821024669   T   T   T
  0.6312087539724683  0.6892554997401905  0.4008329575966627   T   T   T
  0.2900300000000016  0.8572899999999990  0.0286699999999982   F   F   F
  0.6233599999999981  0.8572899999999990  0.1433600000000013   F   F   F
  0.9615832703348974  0.8566481960328222  0.2600231789339852   T   T   T
  0.3006169194045690  0.8558077623480759  0.3736762657511065   T   T   T
  0.9566999999999979  0.8572899999999990  0.0860199999999978   F   F   F
  0.2938042479910193  0.8572805983632358  0.2016762919577869   T   T   T
  0.6328527921726153  0.8565940384694328  0.3176021241002105   T   T   T
  0.6319640637370249  0.6481997645733756  0.5388152846378605   T   T   T
  0.4828307658632895  0.6488348462924390  0.5628775820529608   T   T   T
  0.7757184761809137  0.6491548300529837  0.5647331251491446   T   T   T
  0.6344753849853543  0.7681496116814353  0.5138038648287840   T   T   T
  0.6348463812149918  0.5274555695962243  0.5143052890334193   T   T   T
  0.6476128674021305  0.1886876783856986  0.4535106877569242   T   T   T
 
  0.00000000E+00  0.00000000E+00  0.00000000E+00
  0.00000000E+00  0.00000000E+00  0.00000000E+00
  0.00000000E+00  0.00000000E+00  0.00000000E+00
  0.00000000E+00  0.00000000E+00  0.00000000E+00
  0.00000000E+00  0.00000000E+00  0.00000000E+00
  0.00000000E+00  0.00000000E+00  0.00000000E+00
  0.00000000E+00  0.00000000E+00  0.00000000E+00
  0.00000000E+00  0.00000000E+00  0.00000000E+00
  0.00000000E+00  0.00000000E+00  0.00000000E+00
  0.00000000E+00  0.00000000E+00  0.00000000E+00
  0.00000000E+00  0.00000000E+00  0.00000000E+00
  0.00000000E+00  0.00000000E+00  0.00000000E+00
  0.00000000E+00  0.00000000E+00  0.00000000E+00
  0.00000000E+00  0.00000000E+00  0.00000000E+00
  0.00000000E+00  0.00000000E+00  0.00000000E+00
  0.00000000E+00  0.00000000E+00  0.00000000E+00
  0.00000000E+00  0.00000000E+00  0.00000000E+00
  0.00000000E+00  0.00000000E+00  0.00000000E+00
  0.00000000E+00  0.00000000E+00  0.00000000E+00
  0.00000000E+00  0.00000000E+00  0.00000000E+00
  0.00000000E+00  0.00000000E+00  0.00000000E+00
  0.00000000E+00  0.00000000E+00  0.00000000E+00
  0.00000000E+00  0.00000000E+00  0.00000000E+00
  0.00000000E+00  0.00000000E+00  0.00000000E+00
  0.00000000E+00  0.00000000E+00  0.00000000E+00
  0.00000000E+00  0.00000000E+00  0.00000000E+00
  0.00000000E+00  0.00000000E+00  0.00000000E+00
  0.00000000E+00  0.00000000E+00  0.00000000E+00
  0.00000000E+00  0.00000000E+00  0.00000000E+00
  0.00000000E+00  0.00000000E+00  0.00000000E+00
  0.00000000E+00  0.00000000E+00  0.00000000E+00
  0.00000000E+00  0.00000000E+00  0.00000000E+00
  0.00000000E+00  0.00000000E+00  0.00000000E+00
  0.00000000E+00  0.00000000E+00  0.00000000E+00
  0.00000000E+00  0.00000000E+00  0.00000000E+00
  0.00000000E+00  0.00000000E+00  0.00000000E+00
  0.00000000E+00  0.00000000E+00  0.00000000E+00
  0.00000000E+00  0.00000000E+00  0.00000000E+00
  0.00000000E+00  0.00000000E+00  0.00000000E+00
  0.00000000E+00  0.00000000E+00  0.00000000E+00
  0.00000000E+00  0.00000000E+00  0.00000000E+00
  0.00000000E+00  0.00000000E+00  0.00000000E+00
  0.00000000E+00  0.00000000E+00  0.00000000E+00
  0.00000000E+00  0.00000000E+00  0.00000000E+00
  0.00000000E+00  0.00000000E+00  0.00000000E+00
  0.00000000E+00  0.00000000E+00  0.00000000E+00
  0.00000000E+00  0.00000000E+00  0.00000000E+00
  0.00000000E+00  0.00000000E+00  0.00000000E+00
  0.00000000E+00  0.00000000E+00  0.00000000E+00
  0.00000000E+00  0.00000000E+00  0.00000000E+00
  0.00000000E+00  0.00000000E+00  0.00000000E+00
