Ni C  H  O                              
   1.00000000000000     
     6.0967998505000001    0.0000000000000000    0.0000000000000000
     0.0000000000000000    7.4670000076000003    0.0000000000000000
     0.0000000000000000    0.0000000000000000   25.0592002869000012
   Ni   C    H    O 
    45     1     4     1
Selective dynamics
Direct
  0.9566999999999979  0.0239600000000024  0.0000000000000000   F   F   F
  0.2900300000000016  0.0239600000000024  0.1146900000000031   F   F   F
  0.6276815828648654  0.0244510064552597  0.2309359476412863   T   T   T
  0.9648288572735552  0.0249446722861432  0.3480861551354538   T   T   T
  0.6233599999999981  0.0239600000000024  0.0573499999999996   F   F   F
  0.9579419252852308  0.0245644271263918  0.1728976786851712   T   T   T
  0.2950189430923221  0.0255151597247917  0.2882888933765141   T   T   T
  0.6308287707199720  0.0232265697185567  0.4047979787215790   T   T   T
  0.2900300000000016  0.1906200000000027  0.0286699999999982   F   F   F
  0.6233599999999981  0.1906200000000027  0.1433600000000013   F   F   F
  0.9610316790008604  0.1908723825563178  0.2601537534360371   T   T   T
  0.2950132882856437  0.1938222998558489  0.3730674424016212   T   T   T
  0.9566999999999979  0.1906200000000027  0.0860199999999978   F   F   F
  0.2932429610716065  0.1906414397810111  0.2015424825133088   T   T   T
  0.6325146507708453  0.1946416302880784  0.3183015967529061   T   T   T
  0.9566999999999979  0.3572899999999990  0.0000000000000000   F   F   F
  0.2900300000000016  0.3572899999999990  0.1146900000000031   F   F   F
  0.6280679609286614  0.3579719778294168  0.2308899170133807   T   T   T
  0.9667612250937073  0.3606351128849151  0.3472139172121682   T   T   T
  0.6233599999999981  0.3572899999999990  0.0573499999999996   F   F   F
  0.9580466024719287  0.3578787534849507  0.1728726154216906   T   T   T
  0.2954024505228200  0.3594153841011443  0.2879526018777790   T   T   T
  0.6351441621438296  0.3664160715018920  0.4065733217261647   T   T   T
  0.2900300000000016  0.5239600000000024  0.0286699999999982   F   F   F
  0.6233599999999981  0.5239600000000024  0.1433600000000013   F   F   F
  0.9610864727279749  0.5255935897375640  0.2599017198174647   T   T   T
  0.2987556471224331  0.5262657012845064  0.3730822989441097   T   T   T
  0.9566999999999979  0.5239600000000024  0.0860199999999978   F   F   F
  0.2931862453638515  0.5247152258855629  0.2013890134899857   T   T   T
  0.6333820088631763  0.5250562263784644  0.3176775151765641   T   T   T
  0.9566999999999979  0.6906200000000027  0.0000000000000000   F   F   F
  0.2900300000000016  0.6906200000000027  0.1146900000000031   F   F   F
  0.6279245669086666  0.6916176227459756  0.2302334319012870   T   T   T
  0.9677628237266199  0.6924921807169533  0.3479955399999788   T   T   T
  0.6233599999999981  0.6906200000000027  0.0573499999999996   F   F   F
  0.9580984327778744  0.6902890276509743  0.1728858914422096   T   T   T
  0.2963000357550696  0.6923017909103734  0.2879858138415967   T   T   T
  0.6311457385881447  0.6947691728081653  0.4014683045095867   T   T   T
  0.2900300000000016  0.8572899999999990  0.0286699999999982   F   F   F
  0.6233599999999981  0.8572899999999990  0.1433600000000013   F   F   F
  0.9601956774240064  0.8588004010658337  0.2601296663618648   T   T   T
  0.2986672511455495  0.8600203983077725  0.3737089163687207   T   T   T
  0.9566999999999979  0.8572899999999990  0.0860199999999978   F   F   F
  0.2931342806314324  0.8583903806212051  0.2016490707317862   T   T   T
  0.6322459256742685  0.8596263862788859  0.3188090740281544   T   T   T
  0.6777450411890824  0.5179456142640804  0.4842634153932941   T   T   T
  0.5904692057122654  0.4837491829959900  0.5213346733991132   T   T   T
  0.8506592193978392  0.5411261538775333  0.4929063273250707   T   T   T
  0.5968249641451364  0.6487117678646908  0.4750665652505572   T   T   T
  0.6587371585184686  0.3356355792691363  0.4734897373249512   T   T   T
  0.6553983289267807  0.1719240487178443  0.4600590655773146   T   T   T
 
  0.00000000E+00  0.00000000E+00  0.00000000E+00
  0.00000000E+00  0.00000000E+00  0.00000000E+00
  0.00000000E+00  0.00000000E+00  0.00000000E+00
  0.00000000E+00  0.00000000E+00  0.00000000E+00
  0.00000000E+00  0.00000000E+00  0.00000000E+00
  0.00000000E+00  0.00000000E+00  0.00000000E+00
  0.00000000E+00  0.00000000E+00  0.00000000E+00
  0.00000000E+00  0.00000000E+00  0.00000000E+00
  0.00000000E+00  0.00000000E+00  0.00000000E+00
  0.00000000E+00  0.00000000E+00  0.00000000E+00
  0.00000000E+00  0.00000000E+00  0.00000000E+00
  0.00000000E+00  0.00000000E+00  0.00000000E+00
  0.00000000E+00  0.00000000E+00  0.00000000E+00
  0.00000000E+00  0.00000000E+00  0.00000000E+00
  0.00000000E+00  0.00000000E+00  0.00000000E+00
  0.00000000E+00  0.00000000E+00  0.00000000E+00
  0.00000000E+00  0.00000000E+00  0.00000000E+00
  0.00000000E+00  0.00000000E+00  0.00000000E+00
  0.00000000E+00  0.00000000E+00  0.00000000E+00
  0.00000000E+00  0.00000000E+00  0.00000000E+00
  0.00000000E+00  0.00000000E+00  0.00000000E+00
  0.00000000E+00  0.00000000E+00  0.00000000E+00
  0.00000000E+00  0.00000000E+00  0.00000000E+00
  0.00000000E+00  0.00000000E+00  0.00000000E+00
  0.00000000E+00  0.00000000E+00  0.00000000E+00
  0.00000000E+00  0.00000000E+00  0.00000000E+00
  0.00000000E+00  0.00000000E+00  0.00000000E+00
  0.00000000E+00  0.00000000E+00  0.00000000E+00
  0.00000000E+00  0.00000000E+00  0.00000000E+00
  0.00000000E+00  0.00000000E+00  0.00000000E+00
  0.00000000E+00  0.00000000E+00  0.00000000E+00
  0.00000000E+00  0.00000000E+00  0.00000000E+00
  0.00000000E+00  0.00000000E+00  0.00000000E+00
  0.00000000E+00  0.00000000E+00  0.00000000E+00
  0.00000000E+00  0.00000000E+00  0.00000000E+00
  0.00000000E+00  0.00000000E+00  0.00000000E+00
  0.00000000E+00  0.00000000E+00  0.00000000E+00
  0.00000000E+00  0.00000000E+00  0.00000000E+00
  0.00000000E+00  0.00000000E+00  0.00000000E+00
  0.00000000E+00  0.00000000E+00  0.00000000E+00
  0.00000000E+00  0.00000000E+00  0.00000000E+00
  0.00000000E+00  0.00000000E+00  0.00000000E+00
  0.00000000E+00  0.00000000E+00  0.00000000E+00
  0.00000000E+00  0.00000000E+00  0.00000000E+00
  0.00000000E+00  0.00000000E+00  0.00000000E+00
  0.00000000E+00  0.00000000E+00  0.00000000E+00
  0.00000000E+00  0.00000000E+00  0.00000000E+00
  0.00000000E+00  0.00000000E+00  0.00000000E+00
  0.00000000E+00  0.00000000E+00  0.00000000E+00
  0.00000000E+00  0.00000000E+00  0.00000000E+00
  0.00000000E+00  0.00000000E+00  0.00000000E+00
