Cu Ru Cu  O  C  H                       
   1.00000000000000     
     7.7216000556999997    0.0000000000000000    0.0000000000000000
     0.0000000000000000    7.7216000556999997    0.0000000000000000
     0.0000000000000000    0.0000000000000000   20.4599990845000015
   Cu   Ru   Cu   O    C    H 
    17     1    18     1     1     4
Selective dynamics
Direct
  0.0000000000000000  0.0000000000000000  0.0889500007054593   F   F   F
  0.9910022638013636  0.9910101821268655  0.2702208890079866   T   T   T
  0.1666699946535033  0.1666699946535033  0.0000000000000000   F   F   F
  0.1705131474173546  0.1705796244552256  0.1783531652012026   T   T   T
  0.3333300053659229  0.0000000000000000  0.0889500007054593   F   F   F
  0.3318831694874310  0.9976759925346570  0.2696345877621214   T   T   T
  0.5000000000194263  0.1666699946535033  0.0000000000000000   F   F   F
  0.4985877723817335  0.1682217849230070  0.1804150774211335   T   T   T
  0.6666700243299957  0.0000000000000000  0.0889500007054593   F   F   F
  0.6635613743980062  0.9959635308853287  0.2673434480272810   T   T   T
  0.8333299755987795  0.1666699946535033  0.0000000000000000   F   F   F
  0.8368024568756949  0.1629786897314800  0.1795571062453025   T   T   T
  0.0000000000000000  0.3333300053659229  0.0889500007054593   F   F   F
  0.9977009600004556  0.3319355453101888  0.2696687787692014   T   T   T
  0.1666699946535033  0.5000000000194263  0.0000000000000000   F   F   F
  0.1682280731347738  0.4985624120671322  0.1804145870620208   T   T   T
  0.3333300053659229  0.3333300053659229  0.0889500007054593   F   F   F
  0.3492829538939754  0.3491561552813094  0.2778371261926087   T   T   T
  0.5000000000194263  0.5000000000194263  0.0000000000000000   F   F   F
  0.4996769297794980  0.4996600734330791  0.1784503164231798   T   T   T
  0.6666700243299957  0.3333300053659229  0.0889500007054593   F   F   F
  0.6749014352543667  0.3281421869610349  0.2669127818056837   T   T   T
  0.8333299755987795  0.5000000000194263  0.0000000000000000   F   F   F
  0.8353685041484128  0.4958202312801703  0.1802420129477993   T   T   T
  0.0000000000000000  0.6666700243299957  0.0889500007054593   F   F   F
  0.9958965392440690  0.6636567207519528  0.2673290027246906   T   T   T
  0.1666699946535033  0.8333299755987795  0.0000000000000000   F   F   F
  0.1629626550581330  0.8368062577296714  0.1795634273913468   T   T   T
  0.3333300053659229  0.6666700243299957  0.0889500007054593   F   F   F
  0.3281340291112937  0.6747781985044666  0.2669065441035121   T   T   T
  0.5000000000194263  0.8333299755987795  0.0000000000000000   F   F   F
  0.4958269150345133  0.8353856962111906  0.1802396180916602   T   T   T
  0.6666700243299957  0.6666700243299957  0.0889500007054593   F   F   F
  0.6599967082968152  0.6600400149215910  0.2670062194976840   T   T   T
  0.8333299755987795  0.8333299755987795  0.0000000000000000   F   F   F
  0.8318268998168448  0.8318593339034754  0.1801430425049786   T   T   T
  0.1688897936934513  0.1689332181805449  0.3209797319961833   T   T   T
  0.3668072130098960  0.3663951413660391  0.3924325288704005   T   T   T
  0.4651732681313754  0.4646558403353146  0.3823577298020152   T   T   T
  0.2635860918084212  0.4282517871571156  0.4205598723168534   T   T   T
  0.4285872965808659  0.2630388559923659  0.4204893183762323   T   T   T
  0.2531388225567239  0.2529718215142532  0.3593584931422267   T   T   T
 
  0.00000000E+00  0.00000000E+00  0.00000000E+00
 -0.46014693E-01 -0.46730174E-01 -0.41449022E-01
  0.00000000E+00  0.00000000E+00  0.00000000E+00
 -0.11283253E-01 -0.96255344E-02  0.96777917E-02
  0.00000000E+00  0.00000000E+00  0.00000000E+00
  0.19892789E-01 -0.62931944E-02 -0.20399638E-01
  0.00000000E+00  0.00000000E+00  0.00000000E+00
 -0.98184864E-03 -0.35528407E-02  0.48054919E-02
  0.00000000E+00  0.00000000E+00  0.00000000E+00
  0.75614494E-03 -0.25026008E-02  0.47663084E-02
  0.00000000E+00  0.00000000E+00  0.00000000E+00
  0.17346440E-02  0.10555872E-02  0.53063704E-02
  0.00000000E+00  0.00000000E+00  0.00000000E+00
 -0.74130482E-02  0.20317768E-01 -0.19597031E-01
  0.00000000E+00  0.00000000E+00  0.00000000E+00
 -0.26148943E-02 -0.14348630E-02  0.41848602E-02
  0.00000000E+00  0.00000000E+00  0.00000000E+00
  0.49379991E-01  0.49342682E-01  0.89998483E-01
  0.00000000E+00  0.00000000E+00  0.00000000E+00
  0.75084767E-03  0.11318227E-02  0.12504620E-01
  0.00000000E+00  0.00000000E+00  0.00000000E+00
  0.98933288E-02 -0.77620649E-02  0.39804274E-02
  0.00000000E+00  0.00000000E+00  0.00000000E+00
 -0.85440465E-02  0.74887247E-03  0.83190927E-02
  0.00000000E+00  0.00000000E+00  0.00000000E+00
 -0.30569836E-02  0.62419816E-03  0.49239219E-02
  0.00000000E+00  0.00000000E+00  0.00000000E+00
  0.11495260E-02  0.30723839E-02  0.42304437E-02
  0.00000000E+00  0.00000000E+00  0.00000000E+00
 -0.66318651E-02  0.79951837E-02  0.46618184E-02
  0.00000000E+00  0.00000000E+00  0.00000000E+00
  0.90766913E-03 -0.16690388E-02  0.35977620E-02
  0.00000000E+00  0.00000000E+00  0.00000000E+00
 -0.77923917E-03 -0.10974760E-02  0.37594811E-02
  0.00000000E+00  0.00000000E+00  0.00000000E+00
 -0.90896102E-02 -0.10067346E-01 -0.34584661E-02
  0.17665846E+00  0.17027341E+00  0.27085221E+00
  0.22125404E+00  0.22123861E+00 -0.76506803E-01
  0.18259205E+00  0.18316023E+00  0.16134667E+00
  0.78469676E-02 -0.11114893E-01 -0.13039540E+00
 -0.12111304E-01  0.79877731E-02 -0.12953496E+00
 -0.53547064E+00 -0.53415212E+00 -0.20373969E+00
