Ag Zr Ag O                              
   1.00000000000000     
    12.4799995421999999    0.0000000000000000    0.0000000000000000
     0.0000000000000000    8.8247003554999992    0.0000000000000000
     0.0000000000000000    0.0000000000000000   19.4123001098999985
   Ag   Zr   Ag   O 
    16     1    19     1
Selective dynamics
Direct
  0.0007131739451863  0.0025983071300486  0.2237380504709731   T   T   T
  0.1679764818786676  0.1692795866742791  0.1553432743845971   T   T   T
  0.1666699945754431  0.1666699946455736  0.0000000000000000   F   F   F
  0.0000000000000000  0.0000000000000000  0.0757699981286564   F   F   F
  0.3336081859130272  0.0022869667090543  0.2237996297440986   T   T   T
  0.4989995504207908  0.1681685217523646  0.1552204810582286   T   T   T
  0.4999999999919851  0.1666699946455736  0.0000000000000000   F   F   F
  0.3333300054165420  0.0000000000000000  0.0757699981286564   F   F   F
  0.6659308718443635  0.0019088661750612  0.2239877820258621   T   T   T
  0.8332917943138121  0.1683776132631934  0.1552788608935807   T   T   T
  0.8333299756008401  0.1666699946455736  0.0000000000000000   F   F   F
  0.6666700243751222  0.0000000000000000  0.0757699981286564   F   F   F
  0.0028152423373176  0.3355516809304596  0.2235868366792278   T   T   T
  0.1684270021449617  0.5025165983592278  0.1552809457918856   T   T   T
  0.1666699945754431  0.5000000000283293  0.0000000000000000   F   F   F
  0.0000000000000000  0.3333300053827557  0.0757699981286564   F   F   F
  0.3335587263132998  0.3396486104694983  0.2418042288721974   T   T   T
  0.4988591540356090  0.5014537611421015  0.1547284838671832   T   T   T
  0.4999999999919851  0.5000000000283293  0.0000000000000000   F   F   F
  0.3333300054165420  0.3333300053827557  0.0757699981286564   F   F   F
  0.6633467813271119  0.3342116371117018  0.2239935019247189   T   T   T
  0.8330570056485420  0.4998200165697489  0.1551331236680795   T   T   T
  0.8333299756008401  0.5000000000283293  0.0000000000000000   F   F   F
  0.6666700243751222  0.3333300053827557  0.0757699981286564   F   F   F
  0.0002805258688626  0.6681359111951791  0.2235669286677319   T   T   T
  0.1662548866203887  0.8353332669835052  0.1543589009830983   T   T   T
  0.1666699945754431  0.8333299756083719  0.0000000000000000   F   F   F
  0.0000000000000000  0.6666700243632988  0.0757699981286564   F   F   F
  0.3345291423644439  0.6743830429153964  0.2235648465613492   T   T   T
  0.5011769471763853  0.8357187001469922  0.1537854242928841   T   T   T
  0.4999999999919851  0.8333299756083719  0.0000000000000000   F   F   F
  0.3333300054165420  0.6666700243632988  0.0757699981286564   F   F   F
  0.6656627795526097  0.6674813193769338  0.2237889864065898   T   T   T
  0.8331129773215665  0.8343459555160211  0.1546537219286081   T   T   T
  0.8333299756008401  0.8333299756083719  0.0000000000000000   F   F   F
  0.6666700243751222  0.6666700243632988  0.0757699981286564   F   F   F
  0.3298043811112755  0.3694648267536330  0.3326623143225347   T   T   T
 
  0.00000000E+00  0.00000000E+00  0.00000000E+00
  0.00000000E+00  0.00000000E+00  0.00000000E+00
  0.00000000E+00  0.00000000E+00  0.00000000E+00
  0.00000000E+00  0.00000000E+00  0.00000000E+00
  0.00000000E+00  0.00000000E+00  0.00000000E+00
  0.00000000E+00  0.00000000E+00  0.00000000E+00
  0.00000000E+00  0.00000000E+00  0.00000000E+00
  0.00000000E+00  0.00000000E+00  0.00000000E+00
  0.00000000E+00  0.00000000E+00  0.00000000E+00
  0.00000000E+00  0.00000000E+00  0.00000000E+00
  0.00000000E+00  0.00000000E+00  0.00000000E+00
  0.00000000E+00  0.00000000E+00  0.00000000E+00
  0.00000000E+00  0.00000000E+00  0.00000000E+00
  0.00000000E+00  0.00000000E+00  0.00000000E+00
  0.00000000E+00  0.00000000E+00  0.00000000E+00
  0.00000000E+00  0.00000000E+00  0.00000000E+00
  0.00000000E+00  0.00000000E+00  0.00000000E+00
  0.00000000E+00  0.00000000E+00  0.00000000E+00
  0.00000000E+00  0.00000000E+00  0.00000000E+00
  0.00000000E+00  0.00000000E+00  0.00000000E+00
  0.00000000E+00  0.00000000E+00  0.00000000E+00
  0.00000000E+00  0.00000000E+00  0.00000000E+00
  0.00000000E+00  0.00000000E+00  0.00000000E+00
  0.00000000E+00  0.00000000E+00  0.00000000E+00
  0.00000000E+00  0.00000000E+00  0.00000000E+00
  0.00000000E+00  0.00000000E+00  0.00000000E+00
  0.00000000E+00  0.00000000E+00  0.00000000E+00
  0.00000000E+00  0.00000000E+00  0.00000000E+00
  0.00000000E+00  0.00000000E+00  0.00000000E+00
  0.00000000E+00  0.00000000E+00  0.00000000E+00
  0.00000000E+00  0.00000000E+00  0.00000000E+00
  0.00000000E+00  0.00000000E+00  0.00000000E+00
  0.00000000E+00  0.00000000E+00  0.00000000E+00
  0.00000000E+00  0.00000000E+00  0.00000000E+00
  0.00000000E+00  0.00000000E+00  0.00000000E+00
  0.00000000E+00  0.00000000E+00  0.00000000E+00
  0.00000000E+00  0.00000000E+00  0.00000000E+00
