Ir Cu Ir C  H  O                        
   1.00000000000000     
     8.2306995391999997    0.0000000000000000    0.0000000000000000
    -4.1153497695999999    7.1279948919000002    0.0000000000000000
     0.0000000000000000    0.0000000000000000   21.7203998566000003
   Ir   Cu   Ir   C    H    O 
    17     1    18     1     4     1
Selective dynamics
Direct
  0.0000000000000000  0.0000000000000000  0.0000000000000000   F   F   F
  0.9934922554693858  0.9925057375503866  0.3056787721709168   T   T   T
  0.2224129464867479  0.1110475759155517  0.2049139350355930   T   T   T
  0.1111100018323512  0.2222200036647024  0.1031299978264144   F   F   F
  0.3333300054185528  0.0000000000000000  0.0000000000000000   F   F   F
  0.3328661879481712  0.9922306274828553  0.3056454330567870   T   T   T
  0.5536538059091052  0.1102691324003355  0.2047742209715952   T   T   T
  0.4444400072509040  0.2222200036647024  0.1031299978264144   F   F   F
  0.6666700244452528  0.0000000000000000  0.0000000000000000   F   F   F
  0.6690446792801978  0.0039393437647583  0.3063406308353065   T   T   T
  0.8903532292555705  0.1103275109433489  0.2047982274181585   T   T   T
  0.7777799963894978  0.2222200036647024  0.1031299978264144   F   F   F
  0.0000000000041780  0.3333300054269088  0.0000000000000000   F   F   F
  0.9918837200205798  0.3276505739335798  0.3051704208294017   T   T   T
  0.2237094679598648  0.4433505543826956  0.2049574029075948   T   T   T
  0.1111100017824072  0.5555599928249180  0.1031299978264144   F   F   F
  0.3333300054227308  0.3333300054269088  0.0000000000000000   F   F   F
  0.3243295352137281  0.3146694069437438  0.3124952300259097   T   T   T
  0.5533335898271595  0.4434111601815048  0.2049447695146602   T   T   T
  0.4444400072009600  0.5555599928249180  0.1031299978264144   F   F   F
  0.6666700244494308  0.3333300054269088  0.0000000000000000   F   F   F
  0.6697389683148737  0.3277030502639953  0.3050335873182422   T   T   T
  0.8893230901084413  0.4448852673429441  0.2035974182822755   T   T   T
  0.7777799964610566  0.5555599928249180  0.1031299978264144   F   F   F
  0.0000000000026219  0.6666700243290080  0.0000000000000000   F   F   F
  0.9998529185622881  0.6656565597936654  0.3058891577307951   T   T   T
  0.2213803886621603  0.7740078867015160  0.2049566722409899   T   T   T
  0.1111100018349731  0.8888900279937104  0.1031299978264144   F   F   F
  0.3333300054211747  0.6666700243290080  0.0000000000000000   F   F   F
  0.3271142960164433  0.6689928464378253  0.3098719222430697   T   T   T
  0.5553126313089670  0.7769901775698889  0.2040741314800080   T   T   T
  0.4444400072535259  0.8888900279937104  0.1031299978264144   F   F   F
  0.6666700243263790  0.6666700243290080  0.0000000000000000   F   F   F
  0.6763412984223240  0.6693790286853571  0.3097272247028147   T   T   T
  0.8865062301024857  0.7741092766184957  0.2049436368640170   T   T   T
  0.7777799963921268  0.8888900279937104  0.1031299978264144   F   F   F
  0.6629220637109373  0.3289245768563092  0.4786291132346508   T   T   T
  0.7687773735737528  0.4446301574983226  0.5060675096918889   T   T   T
  0.5570618959530544  0.2230028186402510  0.5088048220844722   T   T   T
  0.7299827794230781  0.2662008303846312  0.4519816063593005   T   T   T
  0.5961280835624126  0.3822645355346477  0.4475723589428996   T   T   T
  0.4457452043013015  0.5566009610013031  0.3631468451662271   T   T   T
 
  0.00000000E+00  0.00000000E+00  0.00000000E+00
  0.00000000E+00  0.00000000E+00  0.00000000E+00
  0.00000000E+00  0.00000000E+00  0.00000000E+00
  0.00000000E+00  0.00000000E+00  0.00000000E+00
  0.00000000E+00  0.00000000E+00  0.00000000E+00
  0.00000000E+00  0.00000000E+00  0.00000000E+00
  0.00000000E+00  0.00000000E+00  0.00000000E+00
  0.00000000E+00  0.00000000E+00  0.00000000E+00
  0.00000000E+00  0.00000000E+00  0.00000000E+00
  0.00000000E+00  0.00000000E+00  0.00000000E+00
  0.00000000E+00  0.00000000E+00  0.00000000E+00
  0.00000000E+00  0.00000000E+00  0.00000000E+00
  0.00000000E+00  0.00000000E+00  0.00000000E+00
  0.00000000E+00  0.00000000E+00  0.00000000E+00
  0.00000000E+00  0.00000000E+00  0.00000000E+00
  0.00000000E+00  0.00000000E+00  0.00000000E+00
  0.00000000E+00  0.00000000E+00  0.00000000E+00
  0.00000000E+00  0.00000000E+00  0.00000000E+00
  0.00000000E+00  0.00000000E+00  0.00000000E+00
  0.00000000E+00  0.00000000E+00  0.00000000E+00
  0.00000000E+00  0.00000000E+00  0.00000000E+00
  0.00000000E+00  0.00000000E+00  0.00000000E+00
  0.00000000E+00  0.00000000E+00  0.00000000E+00
  0.00000000E+00  0.00000000E+00  0.00000000E+00
  0.00000000E+00  0.00000000E+00  0.00000000E+00
  0.00000000E+00  0.00000000E+00  0.00000000E+00
  0.00000000E+00  0.00000000E+00  0.00000000E+00
  0.00000000E+00  0.00000000E+00  0.00000000E+00
  0.00000000E+00  0.00000000E+00  0.00000000E+00
  0.00000000E+00  0.00000000E+00  0.00000000E+00
  0.00000000E+00  0.00000000E+00  0.00000000E+00
  0.00000000E+00  0.00000000E+00  0.00000000E+00
  0.00000000E+00  0.00000000E+00  0.00000000E+00
  0.00000000E+00  0.00000000E+00  0.00000000E+00
  0.00000000E+00  0.00000000E+00  0.00000000E+00
  0.00000000E+00  0.00000000E+00  0.00000000E+00
  0.00000000E+00  0.00000000E+00  0.00000000E+00
  0.00000000E+00  0.00000000E+00  0.00000000E+00
  0.00000000E+00  0.00000000E+00  0.00000000E+00
  0.00000000E+00  0.00000000E+00  0.00000000E+00
  0.00000000E+00  0.00000000E+00  0.00000000E+00
  0.00000000E+00  0.00000000E+00  0.00000000E+00
