Ag In Ag O                              
   1.00000000000000     
     8.8247003554999992    0.0000000000000000    0.0000000000000000
    -4.4123501777999996    7.6424146886999997    0.0000000000000000
     0.0000000000000000    0.0000000000000000   22.2052993773999994
   Ag   In   Ag   O 
    17     1    18     1
Selective dynamics
Direct
     0.0000000000000000    0.0000000000000000    0.0000000000000000   F   F   F
     0.9994064589054642    0.0003688883744408    0.3235941068463714   T   T   T
     0.2218851857461832    0.1111619542196488    0.2148852613361381   T   T   T
     0.1111100018250966    0.2222200036476778    0.1081599965476912   F   F   F
     0.3333300053827557    0.0000000000000000    0.0000000000000000   F   F   F
     0.3339040566832460    0.0002609590573877    0.3228599903807688   T   T   T
     0.5572350554524070    0.1146901608555334    0.2164006101301512   T   T   T
     0.4444400072078523    0.2222200036476778    0.1081599965476912   F   F   F
     0.6666700243632988    0.0000000000000000    0.0000000000000000   F   F   F
     0.6668502035724423    0.0001013390782396    0.3227398654860605   T   T   T
     0.8893841998161067    0.1113520460545991    0.2161333382895841   T   T   T
     0.7777799963856893    0.2222200036476778    0.1081599965476912   F   F   F
     0.9999999999896119    0.3333300054715238    0.0000000000000000   F   F   F
     0.9994015999465238    0.3323662424010548    0.3235939087794451   T   T   T
     0.2218829658231471    0.4440490542547209    0.2148819184848037   T   T   T
     0.1111100017295215    0.5555599927438948    0.1081599965476912   F   F   F
     0.3333300054856849    0.3333300054715238    0.0000000000000000   F   F   F
     0.3284802173135262    0.3309688762906897    0.3319274239405065   T   T   T
     0.5542423137848871    0.4437795654207334    0.2167630938900663   T   T   T
     0.4444400072255874    0.5555599927438948    0.1081599965476912   F   F   F
     0.6666700244662280    0.3333300054715238    0.0000000000000000   F   F   F
     0.6611608239799774    0.3188408595181617    0.3276343926389008   T   T   T
     0.8884822900364669    0.4444562680211837    0.2171382877176729   T   T   T
     0.7777799964034244    0.5555599927438948    0.1081599965476912   F   F   F
     0.9999999999660858    0.6666700244012347    0.0000000000000000   F   F   F
     0.0158752960720946    0.6746031191091273    0.3278465957785788   T   T   T
     0.2191970270424721    0.7762636910779772    0.2167616758640517   T   T   T
     0.1111100017911895    0.8888900280489196    0.1081599965476912   F   F   F
     0.3333300054621589    0.6666700244012347    0.0000000000000000   F   F   F
     0.3339077046135901    0.6669928125277670    0.3228579604582012   T   T   T
     0.5572114076826515    0.7758433319966578    0.2163965966404267   T   T   T
     0.4444400072872554    0.8888900280489196    0.1081599965476912   F   F   F
     0.6666700244427020    0.6666700244012347    0.0000000000000000   F   F   F
     0.6611604330957251    0.6756529326532054    0.3276321835102417   T   T   T
     0.8884805403157392    0.7773467001270224    0.2171392217359809   T   T   T
     0.7777799964650924    0.8888900280489196    0.1081599965476912   F   F   F
     0.7788369783545532    0.5560820093499271    0.3804440386749875   T   T   T
 
  0.00000000E+00  0.00000000E+00  0.00000000E+00
  0.00000000E+00  0.00000000E+00  0.00000000E+00
  0.00000000E+00  0.00000000E+00  0.00000000E+00
  0.00000000E+00  0.00000000E+00  0.00000000E+00
  0.00000000E+00  0.00000000E+00  0.00000000E+00
  0.00000000E+00  0.00000000E+00  0.00000000E+00
  0.00000000E+00  0.00000000E+00  0.00000000E+00
  0.00000000E+00  0.00000000E+00  0.00000000E+00
  0.00000000E+00  0.00000000E+00  0.00000000E+00
  0.00000000E+00  0.00000000E+00  0.00000000E+00
  0.00000000E+00  0.00000000E+00  0.00000000E+00
  0.00000000E+00  0.00000000E+00  0.00000000E+00
  0.00000000E+00  0.00000000E+00  0.00000000E+00
  0.00000000E+00  0.00000000E+00  0.00000000E+00
  0.00000000E+00  0.00000000E+00  0.00000000E+00
  0.00000000E+00  0.00000000E+00  0.00000000E+00
  0.00000000E+00  0.00000000E+00  0.00000000E+00
  0.00000000E+00  0.00000000E+00  0.00000000E+00
  0.00000000E+00  0.00000000E+00  0.00000000E+00
  0.00000000E+00  0.00000000E+00  0.00000000E+00
  0.00000000E+00  0.00000000E+00  0.00000000E+00
  0.00000000E+00  0.00000000E+00  0.00000000E+00
  0.00000000E+00  0.00000000E+00  0.00000000E+00
  0.00000000E+00  0.00000000E+00  0.00000000E+00
  0.00000000E+00  0.00000000E+00  0.00000000E+00
  0.00000000E+00  0.00000000E+00  0.00000000E+00
  0.00000000E+00  0.00000000E+00  0.00000000E+00
  0.00000000E+00  0.00000000E+00  0.00000000E+00
  0.00000000E+00  0.00000000E+00  0.00000000E+00
  0.00000000E+00  0.00000000E+00  0.00000000E+00
  0.00000000E+00  0.00000000E+00  0.00000000E+00
  0.00000000E+00  0.00000000E+00  0.00000000E+00
  0.00000000E+00  0.00000000E+00  0.00000000E+00
  0.00000000E+00  0.00000000E+00  0.00000000E+00
  0.00000000E+00  0.00000000E+00  0.00000000E+00
  0.00000000E+00  0.00000000E+00  0.00000000E+00
  0.00000000E+00  0.00000000E+00  0.00000000E+00
