Ag Hf Ag O                              
   1.00000000000000     
     8.8247003554999992    0.0000000000000000    0.0000000000000000
     0.0000000000000000    8.8247003554999992    0.0000000000000000
     0.0000000000000000    0.0000000000000000   21.2399997710999990
   Ag   Hf   Ag   O 
    17     1    18     1
Selective dynamics
Direct
     0.0000000000000000    0.0000000000000000    0.0979299992192182   F   F   F
     0.0027642939612273    0.0013690786143070    0.2958115121163409   T   T   T
     0.1666699946455736    0.1666699946455736    0.0000000000000000   F   F   F
     0.1663800547969989    0.1669308824858495    0.1965229158543259   T   T   T
     0.3333300053827557    0.0000000000000000    0.0979299992192182   F   F   F
     0.3333345306169059    0.0119556911628216    0.2959206992179002   T   T   T
     0.5000000000283293    0.1666699946455736    0.0000000000000000   F   F   F
     0.5002916823504596    0.1669303149347166    0.1965212749929853   T   T   T
     0.6666700243632988    0.0000000000000000    0.0979299992192182   F   F   F
     0.6639006890614901    0.0013693367437574    0.2958097438381450   T   T   T
     0.8333299756083719    0.1666699946455736    0.0000000000000000   F   F   F
     0.8333332261967337    0.1634119386266955    0.1961009532125479   T   T   T
     0.0000000000000000    0.3333300053827557    0.0979299992192182   F   F   F
     0.9982924286663122    0.3296201793626921    0.2931465533100350   T   T   T
     0.1666699946455736    0.5000000000283293    0.0000000000000000   F   F   F
     0.1687964337119753    0.5015220591658722    0.1985671645279711   T   T   T
     0.3333300053827557    0.3333300053827557    0.0979299992192182   F   F   F
     0.3333345643316202    0.3491463022764348    0.3046658541742011   T   T   T
     0.5000000000283293    0.5000000000283293    0.0000000000000000   F   F   F
     0.4978706644350006    0.5015212265892122    0.1985643533434000   T   T   T
     0.6666700243632988    0.3333300053827557    0.0979299992192182   F   F   F
     0.6683724630089456    0.3296198177365593    0.2931450256247219   T   T   T
     0.8333299756083719    0.5000000000283293    0.0000000000000000   F   F   F
     0.8333333474294845    0.5000064598415255    0.1955754761985659   T   T   T
     0.0000000000000000    0.6666700243632988    0.0979299992192182   F   F   F
     0.9994442201510787    0.6662034928295940    0.2931074485532178   T   T   T
     0.1666699946455736    0.8333299756083719    0.0000000000000000   F   F   F
     0.1673545815211972    0.8342456924651418    0.1973304343955885   T   T   T
     0.3333300053827557    0.6666700243632988    0.0979299992192182   F   F   F
     0.3333332225740345    0.6827748909381215    0.2983771247962299   T   T   T
     0.5000000000283293    0.8333299756083719    0.0000000000000000   F   F   F
     0.4993109402775523    0.8342470592090155    0.1973284998230121   T   T   T
     0.6666700243632988    0.6666700243632988    0.0979299992192182   F   F   F
     0.6672214739010637    0.6662031215751326    0.2931058943514772   T   T   T
     0.8333299756083719    0.8333299756083719    0.0000000000000000   F   F   F
     0.8333329652828529    0.8358164151176162    0.1978757672944961   T   T   T
     0.3333343547804379    0.4571694003774943    0.3759128574226207   T   T   T
 
  0.00000000E+00  0.00000000E+00  0.00000000E+00
  0.00000000E+00  0.00000000E+00  0.00000000E+00
  0.00000000E+00  0.00000000E+00  0.00000000E+00
  0.00000000E+00  0.00000000E+00  0.00000000E+00
  0.00000000E+00  0.00000000E+00  0.00000000E+00
  0.00000000E+00  0.00000000E+00  0.00000000E+00
  0.00000000E+00  0.00000000E+00  0.00000000E+00
  0.00000000E+00  0.00000000E+00  0.00000000E+00
  0.00000000E+00  0.00000000E+00  0.00000000E+00
  0.00000000E+00  0.00000000E+00  0.00000000E+00
  0.00000000E+00  0.00000000E+00  0.00000000E+00
  0.00000000E+00  0.00000000E+00  0.00000000E+00
  0.00000000E+00  0.00000000E+00  0.00000000E+00
  0.00000000E+00  0.00000000E+00  0.00000000E+00
  0.00000000E+00  0.00000000E+00  0.00000000E+00
  0.00000000E+00  0.00000000E+00  0.00000000E+00
  0.00000000E+00  0.00000000E+00  0.00000000E+00
  0.00000000E+00  0.00000000E+00  0.00000000E+00
  0.00000000E+00  0.00000000E+00  0.00000000E+00
  0.00000000E+00  0.00000000E+00  0.00000000E+00
  0.00000000E+00  0.00000000E+00  0.00000000E+00
  0.00000000E+00  0.00000000E+00  0.00000000E+00
  0.00000000E+00  0.00000000E+00  0.00000000E+00
  0.00000000E+00  0.00000000E+00  0.00000000E+00
  0.00000000E+00  0.00000000E+00  0.00000000E+00
  0.00000000E+00  0.00000000E+00  0.00000000E+00
  0.00000000E+00  0.00000000E+00  0.00000000E+00
  0.00000000E+00  0.00000000E+00  0.00000000E+00
  0.00000000E+00  0.00000000E+00  0.00000000E+00
  0.00000000E+00  0.00000000E+00  0.00000000E+00
  0.00000000E+00  0.00000000E+00  0.00000000E+00
  0.00000000E+00  0.00000000E+00  0.00000000E+00
  0.00000000E+00  0.00000000E+00  0.00000000E+00
  0.00000000E+00  0.00000000E+00  0.00000000E+00
  0.00000000E+00  0.00000000E+00  0.00000000E+00
  0.00000000E+00  0.00000000E+00  0.00000000E+00
  0.00000000E+00  0.00000000E+00  0.00000000E+00
