Ag   Os   Ag   O    C    H              
   1.00000000000000     
    12.4799995421999999    0.0000000000000000    0.0000000000000000
     0.0000000000000000    8.8247003554999992    0.0000000000000000
     0.0000000000000000    0.0000000000000000   19.4123001098999985
   Ag   Os   Ag   O    C    H 
    16     1    19     1     1     4
Selective dynamics
Direct
  0.0157364330375318  0.0010156192314302  0.2351139882690164   T   T   T
  0.1690740702756865  0.1720774146099570  0.1505719755848914   T   T   T
  0.1666698779087739  0.1666696817737616  0.0000000000000000   F   F   F
  0.0000000000000000  0.0000000000000000  0.0757700010649387   F   F   F
  0.3286365440154102  0.9922886448898122  0.2295618077027589   T   T   T
  0.4953118987702255  0.1685483307130403  0.1604759965925638   T   T   T
  0.5000000183413462  0.1666696817737616  0.0000000000000000   F   F   F
  0.3333301404325724  0.0000000000000000  0.0757700010649387   F   F   F
  0.6662220413156699  0.0004281870718961  0.2278518292026483   T   T   T
  0.8382650909576956  0.1653345483810066  0.1585096173095097   T   T   T
  0.8333301587739186  0.1666696817737616  0.0000000000000000   F   F   F
  0.6666698962501201  0.0000000000000000  0.0757700010649387   F   F   F
  0.0027155803576080  0.3341737227436671  0.2304367249958474   T   T   T
  0.1678755657504301  0.4982513595668785  0.1570390548067617   T   T   T
  0.1666698779087739  0.4999999798576766  0.0000000000000000   F   F   F
  0.0000000000000000  0.3333302980839079  0.0757700010649387   F   F   F
  0.3296836978859203  0.3361564401151766  0.2229619028501145   T   T   T
  0.4982677413093448  0.4956017694853926  0.1588371215691175   T   T   T
  0.5000000183413462  0.4999999798576766  0.0000000000000000   F   F   F
  0.3333301404325724  0.3333302980839079  0.0757700010649387   F   F   F
  0.6692191590985558  0.3325902509725871  0.2280176437816503   T   T   T
  0.8353345803628932  0.4992957797493759  0.1567116829615544   T   T   T
  0.8333301587739186  0.4999999798576766  0.0000000000000000   F   F   F
  0.6666698962501201  0.3333302980839079  0.0757700010649387   F   F   F
  0.0029242350403145  0.6655696086439991  0.2289796129787385   T   T   T
  0.1676765253941541  0.8281579279133987  0.1528011785205711   T   T   T
  0.1666698779087739  0.8333302779415845  0.0000000000000000   F   F   F
  0.0000000000000000  0.6666696616314383  0.0757700010649387   F   F   F
  0.3343940981562634  0.6585017868629947  0.2292583539063938   T   T   T
  0.4975003661911942  0.8357384266267791  0.1569130653831565   T   T   T
  0.5000000183413462  0.8333302779415845  0.0000000000000000   F   F   F
  0.3333301404325724  0.6666696616314383  0.0757700010649387   F   F   F
  0.6687298943980712  0.6679676489269613  0.2269566066355657   T   T   T
  0.8398760390995876  0.8387977523847439  0.1601597575194862   T   T   T
  0.8333301587739186  0.8333302779415845  0.0000000000000000   F   F   F
  0.6666698962501201  0.6666696616314383  0.0757700010649387   F   F   F
  0.1759405643810723  0.1055733285129699  0.2710824451637647   T   T   T
  0.3081231377098410  0.3027890239216368  0.3367938002539021   T   T   T
  0.3810042552895547  0.3703717028130086  0.3183946569668634   T   T   T
  0.2595657153487990  0.3820431573693218  0.3664182868697544   T   T   T
  0.3419504182486499  0.2144136425874612  0.3695086582187047   T   T   T
  0.2445814134806406  0.2250309751336376  0.3022839904928284   T   T   T
 
  0.00000000E+00  0.00000000E+00  0.00000000E+00
  0.00000000E+00  0.00000000E+00  0.00000000E+00
  0.00000000E+00  0.00000000E+00  0.00000000E+00
  0.00000000E+00  0.00000000E+00  0.00000000E+00
  0.00000000E+00  0.00000000E+00  0.00000000E+00
  0.00000000E+00  0.00000000E+00  0.00000000E+00
  0.00000000E+00  0.00000000E+00  0.00000000E+00
  0.00000000E+00  0.00000000E+00  0.00000000E+00
  0.00000000E+00  0.00000000E+00  0.00000000E+00
  0.00000000E+00  0.00000000E+00  0.00000000E+00
  0.00000000E+00  0.00000000E+00  0.00000000E+00
  0.00000000E+00  0.00000000E+00  0.00000000E+00
  0.00000000E+00  0.00000000E+00  0.00000000E+00
  0.00000000E+00  0.00000000E+00  0.00000000E+00
  0.00000000E+00  0.00000000E+00  0.00000000E+00
  0.00000000E+00  0.00000000E+00  0.00000000E+00
  0.00000000E+00  0.00000000E+00  0.00000000E+00
  0.00000000E+00  0.00000000E+00  0.00000000E+00
  0.00000000E+00  0.00000000E+00  0.00000000E+00
  0.00000000E+00  0.00000000E+00  0.00000000E+00
  0.00000000E+00  0.00000000E+00  0.00000000E+00
  0.00000000E+00  0.00000000E+00  0.00000000E+00
  0.00000000E+00  0.00000000E+00  0.00000000E+00
  0.00000000E+00  0.00000000E+00  0.00000000E+00
  0.00000000E+00  0.00000000E+00  0.00000000E+00
  0.00000000E+00  0.00000000E+00  0.00000000E+00
  0.00000000E+00  0.00000000E+00  0.00000000E+00
  0.00000000E+00  0.00000000E+00  0.00000000E+00
  0.00000000E+00  0.00000000E+00  0.00000000E+00
  0.00000000E+00  0.00000000E+00  0.00000000E+00
  0.00000000E+00  0.00000000E+00  0.00000000E+00
  0.00000000E+00  0.00000000E+00  0.00000000E+00
  0.00000000E+00  0.00000000E+00  0.00000000E+00
  0.00000000E+00  0.00000000E+00  0.00000000E+00
  0.00000000E+00  0.00000000E+00  0.00000000E+00
  0.00000000E+00  0.00000000E+00  0.00000000E+00
  0.00000000E+00  0.00000000E+00  0.00000000E+00
  0.00000000E+00  0.00000000E+00  0.00000000E+00
  0.00000000E+00  0.00000000E+00  0.00000000E+00
  0.00000000E+00  0.00000000E+00  0.00000000E+00
  0.00000000E+00  0.00000000E+00  0.00000000E+00
  0.00000000E+00  0.00000000E+00  0.00000000E+00
