Au Sn Au O  C  H                        
   1.00000000000000     
    12.5100002288999992    0.0000000000000000    0.0000000000000000
     0.0000000000000000    8.8458995818999995    0.0000000000000000
     0.0000000000000000    0.0000000000000000   19.4230003356999994
   Au   Sn   Au   O    C    H 
    17     1    18     1     1     4
Selective dynamics
Direct
  0.0000000000000000  0.0000000000000000  0.0759100019830612   F   F   F
  0.0240903234760360 -0.0018360350724913  0.2381627246389892   T   T   T
  0.1667690141268755  0.1757539313174058  0.1519149927728536   T   T   T
  0.1666699946322368  0.1666699945381183  0.0000000000000000   F   F   F
  0.3333300054117316  0.0000000000000000  0.0759100019830612   F   F   F
  0.3089890973680617  0.9939611807618870  0.2387004116077683   T   T   T
  0.4850214809816228  0.1684058476534031  0.1709656002383269   T   T   T
  0.4999999999640323  0.1666699945381183  0.0000000000000000   F   F   F
  0.6666700244124115  0.0000000000000000  0.0759100019830612   F   F   F
  0.6662340991880243  0.0045798471208006  0.2279624084943415   T   T   T
  0.8413884927480452  0.1638289914954791  0.1627739439019499   T   T   T
  0.8333299756395505  0.1666699945381183  0.0000000000000000   F   F   F
  0.0000000000000000  0.3333300053544903  0.0759100019830612   F   F   F
  0.0005177847562852  0.3358945848527269  0.2309031360436965   T   T   T
  0.1688628597141821  0.4976072855826029  0.1601109319079683   T   T   T
  0.1666699946322368  0.5000000000056559  0.0000000000000000   F   F   F
  0.3333300054117316  0.3333300053544903  0.0759100019830612   F   F   F
  0.3259858672732067  0.3399148924896545  0.2419694124495103   T   T   T
  0.4982045784483094  0.4998838166569153  0.1605310447570096   T   T   T
  0.4999999999640323  0.5000000000056559  0.0000000000000000   F   F   F
  0.6666700244124115  0.3333300053544903  0.0759100019830612   F   F   F
  0.6677536994098288  0.3327685983878705  0.2257638664104854   T   T   T
  0.8333474220628223  0.5028502800438813  0.1597180281916026   T   T   T
  0.8333299756395505  0.5000000000056559  0.0000000000000000   F   F   F
  0.0000000000000000  0.6666700243881039  0.0759100019830612   F   F   F
  0.0046820371116910  0.6598842899813742  0.2318097595295775   T   T   T
  0.1648355289486581  0.8241760898640017  0.1513078625148226   T   T   T
  0.1666699946322368  0.8333299756288497  0.0000000000000000   F   F   F
  0.3333300054117316  0.6666700243881039  0.0759100019830612   F   F   F
  0.3323088902419479  0.6678604941105823  0.2319839746950050   T   T   T
  0.4906492102131085  0.8451395070629886  0.1644606415946948   T   T   T
  0.4999999999640323  0.8333299756288497  0.0000000000000000   F   F   F
  0.6666700244124115  0.6666700243881039  0.0759100019830612   F   F   F
  0.6658835355466591  0.6757523593727566  0.2253317782967663   T   T   T
  0.8461207846214470  0.8434717450753226  0.1696672983644617   T   T   T
  0.8333299756395505  0.8333299756288497  0.0000000000000000   F   F   F
  0.1665742212761005  0.0243532389261629  0.2967425893076823   T   T   T
  0.3257837315214328  0.3297656475597817  0.4400915102103138   T   T   T
  0.3702776591335049  0.4081779342698304  0.4073567407930138   T   T   T
  0.2716250915447640  0.3941535322049867  0.4729360241357788   T   T   T
  0.3819429786518477  0.2664209177283174  0.4718988550552171   T   T   T
  0.2795235907404814  0.2511143415282571  0.4085540180482971   T   T   T
 
  0.00000000E+00  0.00000000E+00  0.00000000E+00
  0.00000000E+00  0.00000000E+00  0.00000000E+00
  0.00000000E+00  0.00000000E+00  0.00000000E+00
  0.00000000E+00  0.00000000E+00  0.00000000E+00
  0.00000000E+00  0.00000000E+00  0.00000000E+00
  0.00000000E+00  0.00000000E+00  0.00000000E+00
  0.00000000E+00  0.00000000E+00  0.00000000E+00
  0.00000000E+00  0.00000000E+00  0.00000000E+00
  0.00000000E+00  0.00000000E+00  0.00000000E+00
  0.00000000E+00  0.00000000E+00  0.00000000E+00
  0.00000000E+00  0.00000000E+00  0.00000000E+00
  0.00000000E+00  0.00000000E+00  0.00000000E+00
  0.00000000E+00  0.00000000E+00  0.00000000E+00
  0.00000000E+00  0.00000000E+00  0.00000000E+00
  0.00000000E+00  0.00000000E+00  0.00000000E+00
  0.00000000E+00  0.00000000E+00  0.00000000E+00
  0.00000000E+00  0.00000000E+00  0.00000000E+00
  0.00000000E+00  0.00000000E+00  0.00000000E+00
  0.00000000E+00  0.00000000E+00  0.00000000E+00
  0.00000000E+00  0.00000000E+00  0.00000000E+00
  0.00000000E+00  0.00000000E+00  0.00000000E+00
  0.00000000E+00  0.00000000E+00  0.00000000E+00
  0.00000000E+00  0.00000000E+00  0.00000000E+00
  0.00000000E+00  0.00000000E+00  0.00000000E+00
  0.00000000E+00  0.00000000E+00  0.00000000E+00
  0.00000000E+00  0.00000000E+00  0.00000000E+00
  0.00000000E+00  0.00000000E+00  0.00000000E+00
  0.00000000E+00  0.00000000E+00  0.00000000E+00
  0.00000000E+00  0.00000000E+00  0.00000000E+00
  0.00000000E+00  0.00000000E+00  0.00000000E+00
  0.00000000E+00  0.00000000E+00  0.00000000E+00
  0.00000000E+00  0.00000000E+00  0.00000000E+00
  0.00000000E+00  0.00000000E+00  0.00000000E+00
  0.00000000E+00  0.00000000E+00  0.00000000E+00
  0.00000000E+00  0.00000000E+00  0.00000000E+00
  0.00000000E+00  0.00000000E+00  0.00000000E+00
  0.00000000E+00  0.00000000E+00  0.00000000E+00
  0.00000000E+00  0.00000000E+00  0.00000000E+00
  0.00000000E+00  0.00000000E+00  0.00000000E+00
  0.00000000E+00  0.00000000E+00  0.00000000E+00
  0.00000000E+00  0.00000000E+00  0.00000000E+00
  0.00000000E+00  0.00000000E+00  0.00000000E+00
