Cu Ta Cu O                              
   1.00000000000000     
     6.3046998978000000    0.0000000000000000    0.0000000000000000
     0.0000000000000000    7.7216000556999997    0.0000000000000000
     0.0000000000000000    0.0000000000000000   25.4022006988999998
   Cu   Ta   Cu   O 
    19     1    25     1
Selective dynamics
Direct
  0.0000000000000000  0.0000000000000000  0.0000000000000000   F   F   F
  0.3333299999999966  0.0000000000000000  0.1169999999999973   F   F   F
  0.6693568649392729 -0.0030650680653123  0.2333302556244137   T   T   T
  0.0016056597483892  0.0030922509004023  0.3546377034844708   T   T   T
  0.6566328535417144 -0.0012092227542024  0.4046695183098682   T   T   T
  0.6666700000000034  0.0000000000000000  0.0585000000000022   F   F   F
  0.0015091683158882 -0.0002759583904083  0.1753423977548337   T   T   T
  0.3356033806833398  0.0003283832326182  0.2925705137501416   T   T   T
  0.3333299999999966  0.1666700000000034  0.0292499999999976   F   F   F
  0.6666700000000034  0.1666700000000034  0.1462500000000020   F   F   F
  0.0079763675517746  0.1657996326640339  0.2621348613389761   T   T   T
  0.3372185435806997  0.1711866638501684  0.3807757251904419   T   T   T
  0.0000000000000000  0.1666700000000034  0.0877499999999998   F   F   F
  0.3368797638022565  0.1652250396817510  0.2042904119773951   T   T   T
  0.6784053993378323  0.1629956038353271  0.3180167515673732   T   T   T
  0.0000000000000000  0.3333299999999966  0.0000000000000000   F   F   F
  0.3333299999999966  0.3333299999999966  0.1169999999999973   F   F   F
  0.6739922457504295  0.3338410370380313  0.2327309130831813   T   T   T
  0.0162931039521328  0.3341727760849832  0.3490425617447985   T   T   T
  0.6920822416581338  0.3386411197443989  0.4114390619227555   T   T   T
  0.6666700000000034  0.3333299999999966  0.0585000000000022   F   F   F
  0.0035370566082524  0.3332943596630583  0.1748515710782091   T   T   T
  0.3451786822551303  0.3322313348039559  0.2906634706338827   T   T   T
  0.3333299999999966  0.5000000000000000  0.0292499999999976   F   F   F
  0.6666700000000034  0.5000000000000000  0.1462500000000020   F   F   F
  0.0075055344464327  0.5010256784225857  0.2621756281605604   T   T   T
  0.3428602822117383  0.4995343033742687  0.3771310362434711   T   T   T
  0.0000000000000000  0.5000000000000000  0.0877499999999998   F   F   F
  0.3368276830976175  0.5006001368354209  0.2043776057927551   T   T   T
  0.6806226947855276  0.5012530208345608  0.3210246518268657   T   T   T
  0.0000000000000000  0.6666700000000034  0.0000000000000000   F   F   F
  0.3333299999999966  0.6666700000000034  0.1169999999999973   F   F   F
  0.6699540912368630  0.6668298677007051  0.2334108088438141   T   T   T
  0.0060893311209867  0.6676191369171364  0.3527091082544518   T   T   T
  0.6683138557155072  0.6790697895529930  0.4103705540200801   T   T   T
  0.6666700000000034  0.6666700000000034  0.0585000000000022   F   F   F
  0.0010477268644843  0.6673742355425197  0.1751405636197912   T   T   T
  0.3371515939926877  0.6671345078020787  0.2917659202164039   T   T   T
  0.3333299999999966  0.8333299999999966  0.0292499999999976   F   F   F
  0.6666700000000034  0.8333299999999966  0.1462500000000020   F   F   F
  0.0023972060425982  0.8338546263347930  0.2639232493264616   T   T   T
  0.3328779883518205  0.8337358538345683  0.3787958168368730   T   T   T
  0.0000000000000000  0.8333299999999966  0.0877499999999998   F   F   F
  0.3345493823287952  0.8330133544588421  0.2048115500245156   T   T   T
  0.6727901017488632  0.8291871362266829  0.3220634079139769   T   T   T
  0.7228123105987794  0.4851782343674014  0.4655575606940957   T   T   T
 
  0.00000000E+00  0.00000000E+00  0.00000000E+00
  0.00000000E+00  0.00000000E+00  0.00000000E+00
  0.00000000E+00  0.00000000E+00  0.00000000E+00
  0.00000000E+00  0.00000000E+00  0.00000000E+00
  0.00000000E+00  0.00000000E+00  0.00000000E+00
  0.00000000E+00  0.00000000E+00  0.00000000E+00
  0.00000000E+00  0.00000000E+00  0.00000000E+00
  0.00000000E+00  0.00000000E+00  0.00000000E+00
  0.00000000E+00  0.00000000E+00  0.00000000E+00
  0.00000000E+00  0.00000000E+00  0.00000000E+00
  0.00000000E+00  0.00000000E+00  0.00000000E+00
  0.00000000E+00  0.00000000E+00  0.00000000E+00
  0.00000000E+00  0.00000000E+00  0.00000000E+00
  0.00000000E+00  0.00000000E+00  0.00000000E+00
  0.00000000E+00  0.00000000E+00  0.00000000E+00
  0.00000000E+00  0.00000000E+00  0.00000000E+00
  0.00000000E+00  0.00000000E+00  0.00000000E+00
  0.00000000E+00  0.00000000E+00  0.00000000E+00
  0.00000000E+00  0.00000000E+00  0.00000000E+00
  0.00000000E+00  0.00000000E+00  0.00000000E+00
  0.00000000E+00  0.00000000E+00  0.00000000E+00
  0.00000000E+00  0.00000000E+00  0.00000000E+00
  0.00000000E+00  0.00000000E+00  0.00000000E+00
  0.00000000E+00  0.00000000E+00  0.00000000E+00
  0.00000000E+00  0.00000000E+00  0.00000000E+00
  0.00000000E+00  0.00000000E+00  0.00000000E+00
  0.00000000E+00  0.00000000E+00  0.00000000E+00
  0.00000000E+00  0.00000000E+00  0.00000000E+00
  0.00000000E+00  0.00000000E+00  0.00000000E+00
  0.00000000E+00  0.00000000E+00  0.00000000E+00
  0.00000000E+00  0.00000000E+00  0.00000000E+00
  0.00000000E+00  0.00000000E+00  0.00000000E+00
  0.00000000E+00  0.00000000E+00  0.00000000E+00
  0.00000000E+00  0.00000000E+00  0.00000000E+00
  0.00000000E+00  0.00000000E+00  0.00000000E+00
  0.00000000E+00  0.00000000E+00  0.00000000E+00
  0.00000000E+00  0.00000000E+00  0.00000000E+00
  0.00000000E+00  0.00000000E+00  0.00000000E+00
  0.00000000E+00  0.00000000E+00  0.00000000E+00
  0.00000000E+00  0.00000000E+00  0.00000000E+00
  0.00000000E+00  0.00000000E+00  0.00000000E+00
  0.00000000E+00  0.00000000E+00  0.00000000E+00
  0.00000000E+00  0.00000000E+00  0.00000000E+00
  0.00000000E+00  0.00000000E+00  0.00000000E+00
  0.00000000E+00  0.00000000E+00  0.00000000E+00
  0.00000000E+00  0.00000000E+00  0.00000000E+00
