Ir Ag Ir C  H  O                        
   1.00000000000000     
     8.2306995391999997    0.0000000000000000    0.0000000000000000
    -4.1153497695999999    7.1279948919000002    0.0000000000000000
     0.0000000000000000    0.0000000000000000   21.7203998566000003
   Ir   Ag   Ir   C    H    O 
    17     1    18     1     4     1
Selective dynamics
Direct
  0.0000000000000000  0.0000000000000000  0.0000000000000000   F   F   F
  0.9924099179424432  0.9935826338208920  0.3053927275906496   T   T   T
  0.2240437302319180  0.1137353197117730  0.2056037852104159   T   T   T
  0.1111100018323512  0.2222200036647024  0.1031299978264144   F   F   F
  0.3333300054185528  0.0000000000000000  0.0000000000000000   F   F   F
  0.3356630192408819  0.9947802736387219  0.3052226961752474   T   T   T
  0.5547207215656125  0.1118966084569038  0.2043262680502146   T   T   T
  0.4444400072509040  0.2222200036647024  0.1031299978264144   F   F   F
  0.6666700244452528  0.0000000000000000  0.0000000000000000   F   F   F
  0.6653969010325964  0.0011810239130654  0.3073596028903333   T   T   T
  0.8913110152740511  0.1153515900592400  0.2060277811270099   T   T   T
  0.7777799963894978  0.2222200036647024  0.1031299978264144   F   F   F
  0.0000000000041780  0.3333300054269088  0.0000000000000000   F   F   F
  0.9912624051417233  0.3247446961544883  0.3067066171404057   T   T   T
  0.2234277723881888  0.4432026087741768  0.2051365860720318   T   T   T
  0.1111100017824072  0.5555599928249180  0.1031299978264144   F   F   F
  0.3333300054227308  0.3333300054269088  0.0000000000000000   F   F   F
  0.3354856494125706  0.3311776651363136  0.3278778776410123   T   T   T
  0.5528851932533062  0.4425924773085347  0.2056124878938393   T   T   T
  0.4444400072009600  0.5555599928249180  0.1031299978264144   F   F   F
  0.6666700244494308  0.3333300054269088  0.0000000000000000   F   F   F
  0.6719512994784319  0.3309972013014341  0.3052217741563866   T   T   T
  0.8894707444296813  0.4459899801646865  0.2032613830078414   T   T   T
  0.7777799964610566  0.5555599928249180  0.1031299978264144   F   F   F
  0.0000000000026219  0.6666700243290080  0.0000000000000000   F   F   F
  0.9950627236794842  0.6715306877506800  0.3071313429583668   T   T   T
  0.2206431090314743  0.7772038102711868  0.2032652945722697   T   T   T
  0.1111100018349731  0.8888900279937104  0.1031299978264144   F   F   F
  0.3333300054211747  0.6666700243290080  0.0000000000000000   F   F   F
  0.3418712557543364  0.6753992373312541  0.3066997714577617   T   T   T
  0.5512476290138320  0.7753152322584496  0.2060243054868130   T   T   T
  0.4444400072535259  0.8888900279937104  0.1031299978264144   F   F   F
  0.6666700243263790  0.6666700243290080  0.0000000000000000   F   F   F
  0.6730396782678119  0.6742452682977074  0.3053979434520322   T   T   T
  0.8908952086656454  0.7756859978234456  0.2048912362781619   T   T   T
  0.7777799963921268  0.8888900279937104  0.1031299978264144   F   F   F
  0.3363993292564828  0.3301473737949345  0.4289716292477254   T   T   T
  0.4086754293388803  0.4780737248321090  0.4409659185876713   T   T   T
  0.1884794907896387  0.2552372763110825  0.4409883360260068   T   T   T
  0.4107792554177525  0.2583965160704382  0.4429773900083586   T   T   T
  0.1005543551274268  0.5664501166027662  0.4222906872285404   T   T   T
  0.1080818771762059  0.5588004830927069  0.3778730601835887   T   T   T
 
  0.00000000E+00  0.00000000E+00  0.00000000E+00
  0.00000000E+00  0.00000000E+00  0.00000000E+00
  0.00000000E+00  0.00000000E+00  0.00000000E+00
  0.00000000E+00  0.00000000E+00  0.00000000E+00
  0.00000000E+00  0.00000000E+00  0.00000000E+00
  0.00000000E+00  0.00000000E+00  0.00000000E+00
  0.00000000E+00  0.00000000E+00  0.00000000E+00
  0.00000000E+00  0.00000000E+00  0.00000000E+00
  0.00000000E+00  0.00000000E+00  0.00000000E+00
  0.00000000E+00  0.00000000E+00  0.00000000E+00
  0.00000000E+00  0.00000000E+00  0.00000000E+00
  0.00000000E+00  0.00000000E+00  0.00000000E+00
  0.00000000E+00  0.00000000E+00  0.00000000E+00
  0.00000000E+00  0.00000000E+00  0.00000000E+00
  0.00000000E+00  0.00000000E+00  0.00000000E+00
  0.00000000E+00  0.00000000E+00  0.00000000E+00
  0.00000000E+00  0.00000000E+00  0.00000000E+00
  0.00000000E+00  0.00000000E+00  0.00000000E+00
  0.00000000E+00  0.00000000E+00  0.00000000E+00
  0.00000000E+00  0.00000000E+00  0.00000000E+00
  0.00000000E+00  0.00000000E+00  0.00000000E+00
  0.00000000E+00  0.00000000E+00  0.00000000E+00
  0.00000000E+00  0.00000000E+00  0.00000000E+00
  0.00000000E+00  0.00000000E+00  0.00000000E+00
  0.00000000E+00  0.00000000E+00  0.00000000E+00
  0.00000000E+00  0.00000000E+00  0.00000000E+00
  0.00000000E+00  0.00000000E+00  0.00000000E+00
  0.00000000E+00  0.00000000E+00  0.00000000E+00
  0.00000000E+00  0.00000000E+00  0.00000000E+00
  0.00000000E+00  0.00000000E+00  0.00000000E+00
  0.00000000E+00  0.00000000E+00  0.00000000E+00
  0.00000000E+00  0.00000000E+00  0.00000000E+00
  0.00000000E+00  0.00000000E+00  0.00000000E+00
  0.00000000E+00  0.00000000E+00  0.00000000E+00
  0.00000000E+00  0.00000000E+00  0.00000000E+00
  0.00000000E+00  0.00000000E+00  0.00000000E+00
  0.00000000E+00  0.00000000E+00  0.00000000E+00
  0.00000000E+00  0.00000000E+00  0.00000000E+00
  0.00000000E+00  0.00000000E+00  0.00000000E+00
  0.00000000E+00  0.00000000E+00  0.00000000E+00
  0.00000000E+00  0.00000000E+00  0.00000000E+00
  0.00000000E+00  0.00000000E+00  0.00000000E+00
