Au Ge Au O  C  H 
 1.0000000000000000
    12.5100002288999992    0.0000000000000000    0.0000000000000000
     0.0000000000000000    8.8458995818999995    0.0000000000000000
     0.0000000000000000    0.0000000000000000   19.4230003356999994
 Au  Ge  Au  O   C   H  
  17   1  18   1   1   4
Selective dynamics
Cartesian
  0.0000000000000000  0.0000000000000000  1.4743999939999854   F   F   F
  0.0515656221269983  8.8431363920420889  4.4388332060583719   T   T   T
  2.1237492986371471  1.4840321170221595  3.0667243667030575   T   T   T
  2.0850416710000439  1.4743460350000157  0.0000000000000000   F   F   F
  4.1699584439999997  0.0000000000000000  1.4743999939999854   F   F   F
  4.1721286187383786  8.8400093109323592  4.6096789573370573   T   T   T
  6.2181648656714410  1.4784894650694262  3.0664559099022184   T   T   T
  6.2550001140000440  1.4743460350000157  0.0000000000000000   F   F   F
  8.3400421580000366  0.0000000000000000  1.4743999939999854   F   F   F
  8.2930257216162051  8.8351259069187638  4.4386642458049268   T   T   T
 10.4271064731976129  1.4580696432298486  3.1197874633436378   T   T   T
 10.4249581860000067  1.4743460350000157  0.0000000000000000   F   F   F
  0.0000000000000000  2.9486037550000104  1.4743999939999854   F   F   F
  0.0005072029556296  2.9337652956879832  4.4551213952193782   T   T   T
  2.1507260145986686  4.3583300632751989  3.1767555783132950   T   T   T
  2.0850416710000439  4.4229497910000317  0.0000000000000000   F   F   F
  4.1699584439999997  2.9486037550000104  1.4743999939999854   F   F   F
  4.1759057717485346  3.4730452620140269  4.7130905954040658   T   T   T
  6.1914958241518114  4.3546295082440611  3.1738242689235179   T   T   T
  6.2550001140000440  4.4229497910000317  0.0000000000000000   F   F   F
  8.3400421580000366  2.9486037550000104  1.4743999939999854   F   F   F
  8.3395435333081149  2.9280345258923823  4.4508333163784251   T   T   T
 10.4288570447968532  4.4172022682745506  3.1131124590869703   T   T   T
 10.4249581860000067  4.4229497910000317  0.0000000000000000   F   F   F
  0.0000000000000000  5.8972960899999904  1.4743999939999854   F   F   F
  0.0431998415183080  5.8853800370622258  4.4273830819026561   T   T   T
  2.1168255173596084  7.3819492097710908  3.0712162685071385   T   T   T
  2.0850416710000439  7.3715532829999786  0.0000000000000000   F   F   F
  4.1699584439999997  5.8972960899999904  1.4743999939999854   F   F   F
  4.1658041371516257  6.0629588350196313  4.5925911970724203   T   T   T
  6.2236569333037881  7.3772620186919369  3.0763543985149582   T   T   T
  6.2550001140000440  7.3715532829999786  0.0000000000000000   F   F   F
  8.3400421580000366  5.8972960899999904  1.4743999939999854   F   F   F
  8.3019881777645885  5.8762541847278991  4.4251488739890732   T   T   T
 10.4285719247721111  7.3640526084217672  3.1326401218749589   T   T   T
 10.4249581860000067  7.3715532829999786  0.0000000000000000   F   F   F
  4.1640733513518011  2.0054514826099039  5.6160370538752948   T   T   T
  4.1783244320089485  3.7730355119931631  6.8130905954040655   T   T   T
  4.1809006823258175  4.8502610770496624  6.9898151940452733   T   T   T
  3.2875767780657692  3.3376942014290614  7.2666628735241252   T   T   T
  5.0676343895111877  3.3341776889547940  7.2662393431597723   T   T   T
  4.1640733513518011  2.0054514826099039  6.5860370538752946   T   T   T
