Au Sn Au O  C  H                        
   1.00000000000000     
    12.5100002288999992    0.0000000000000000    0.0000000000000000
     0.0000000000000000    8.8458995818999995    0.0000000000000000
     0.0000000000000000    0.0000000000000000   19.4230003356999994
   Au   Sn   Au   O    C    H 
    17     1    18     1     1     4
Selective dynamics
Direct
  0.0000000000000000  0.0000000000000000  0.0759100019830612   F   F   F
  0.0078815198459639  0.9954309413248460  0.2262983561984221   T   T   T
  0.1686602410021779  0.1690822661260025  0.1532564083300417   T   T   T
  0.1666699946322368  0.1666699945381183  0.0000000000000000   F   F   F
  0.3333300054117316  0.0000000000000000  0.0759100019830612   F   F   F
  0.3090829998130120  0.9871544433932589  0.2352922813583953   T   T   T
  0.4742302085095680  0.1902254251812455  0.2134383976908897   T   T   T
  0.4999999999640323  0.1666699945381183  0.0000000000000000   F   F   F
  0.6666700244124115  0.0000000000000000  0.0759100019830612   F   F   F
  0.6653403470810898  0.0116771803396255  0.2294789373528272   T   T   T
  0.8331999963541858  0.1665965129705991  0.1597178694454875   T   T   T
  0.8333299756395505  0.1666699945381183  0.0000000000000000   F   F   F
  0.0000000000000000  0.3333300053544903  0.0759100019830612   F   F   F
  0.9987624426292356  0.3292318152568944  0.2273557173554820   T   T   T
  0.1893620314997538  0.4809392608312514  0.1916870383667248   T   T   T
  0.1666699946322368  0.5000000000056559  0.0000000000000000   F   F   F
  0.3333300054117316  0.3333300053544903  0.0759100019830612   F   F   F
  0.3367835798922029  0.3666139864316868  0.2882248152472460   T   T   T
  0.4978243951394964  0.4912192504706683  0.1542694948023014   T   T   T
  0.4999999999640323  0.5000000000056559  0.0000000000000000   F   F   F
  0.6666700244124115  0.3333300053544903  0.0759100019830612   F   F   F
  0.6693776925746636  0.3432444753044447  0.2296288028973661   T   T   T
  0.8313640387718226  0.5038264537923319  0.1601540483796878   T   T   T
  0.8333299756395505  0.5000000000056559  0.0000000000000000   F   F   F
  0.0000000000000000  0.6666700243881039  0.0759100019830612   F   F   F
  0.0017376119265555  0.6587191110052815  0.2280417913914485   T   T   T
  0.1661183503355265  0.8153018865472429  0.1561478643328749   T   T   T
  0.1666699946322368  0.8333299756288497  0.0000000000000000   F   F   F
  0.3333300054117316  0.6666700243881039  0.0759100019830612   F   F   F
  0.3524235920577353  0.6761794391371773  0.2304810276576872   T   T   T
  0.4955719294305669  0.8660460947161633  0.1601602300854034   T   T   T
  0.4999999999640323  0.8333299756288497  0.0000000000000000   F   F   F
  0.6666700244124115  0.6666700243881039  0.0759100019830612   F   F   F
  0.6521411407862802  0.6756132482278575  0.2257633579076902   T   T   T
  0.8317545430252125  0.8342279972508121  0.1636369011623871   T   T   T
  0.8333299756395505  0.8333299756288497  0.0000000000000000   F   F   F
  0.2382752168857742  0.1861733321674985  0.3207655578680975   T   T   T
  0.3914213215326096  0.4343072395866230  0.3918196034434858   T   T   T
  0.4370521183845987  0.5389356696791012  0.3882943039063423   T   T   T
  0.3204001007035984  0.4510657387973696  0.4236180843584731   T   T   T
  0.4409533821678772  0.3439958729464339  0.4131200167932939   T   T   T
  0.2494834654073417  0.1617514903544550  0.3689953310864454   T   T   T
 
  0.00000000E+00  0.00000000E+00  0.00000000E+00
  0.00000000E+00  0.00000000E+00  0.00000000E+00
  0.00000000E+00  0.00000000E+00  0.00000000E+00
  0.00000000E+00  0.00000000E+00  0.00000000E+00
  0.00000000E+00  0.00000000E+00  0.00000000E+00
  0.00000000E+00  0.00000000E+00  0.00000000E+00
  0.00000000E+00  0.00000000E+00  0.00000000E+00
  0.00000000E+00  0.00000000E+00  0.00000000E+00
  0.00000000E+00  0.00000000E+00  0.00000000E+00
  0.00000000E+00  0.00000000E+00  0.00000000E+00
  0.00000000E+00  0.00000000E+00  0.00000000E+00
  0.00000000E+00  0.00000000E+00  0.00000000E+00
  0.00000000E+00  0.00000000E+00  0.00000000E+00
  0.00000000E+00  0.00000000E+00  0.00000000E+00
  0.00000000E+00  0.00000000E+00  0.00000000E+00
  0.00000000E+00  0.00000000E+00  0.00000000E+00
  0.00000000E+00  0.00000000E+00  0.00000000E+00
  0.00000000E+00  0.00000000E+00  0.00000000E+00
  0.00000000E+00  0.00000000E+00  0.00000000E+00
  0.00000000E+00  0.00000000E+00  0.00000000E+00
  0.00000000E+00  0.00000000E+00  0.00000000E+00
  0.00000000E+00  0.00000000E+00  0.00000000E+00
  0.00000000E+00  0.00000000E+00  0.00000000E+00
  0.00000000E+00  0.00000000E+00  0.00000000E+00
  0.00000000E+00  0.00000000E+00  0.00000000E+00
  0.00000000E+00  0.00000000E+00  0.00000000E+00
  0.00000000E+00  0.00000000E+00  0.00000000E+00
  0.00000000E+00  0.00000000E+00  0.00000000E+00
  0.00000000E+00  0.00000000E+00  0.00000000E+00
  0.00000000E+00  0.00000000E+00  0.00000000E+00
  0.00000000E+00  0.00000000E+00  0.00000000E+00
  0.00000000E+00  0.00000000E+00  0.00000000E+00
  0.00000000E+00  0.00000000E+00  0.00000000E+00
  0.00000000E+00  0.00000000E+00  0.00000000E+00
  0.00000000E+00  0.00000000E+00  0.00000000E+00
  0.00000000E+00  0.00000000E+00  0.00000000E+00
  0.00000000E+00  0.00000000E+00  0.00000000E+00
  0.00000000E+00  0.00000000E+00  0.00000000E+00
  0.00000000E+00  0.00000000E+00  0.00000000E+00
  0.00000000E+00  0.00000000E+00  0.00000000E+00
  0.00000000E+00  0.00000000E+00  0.00000000E+00
  0.00000000E+00  0.00000000E+00  0.00000000E+00
