Pd Cu Pd C  H  O                        
   1.00000000000000     
     8.4004001617000004    0.0000000000000000    0.0000000000000000
    -4.2002000809000002    7.2749599419999997    0.0000000000000000
     0.0000000000000000    0.0000000000000000   21.8589000702000007
   Pd   Cu   Pd   C    H    O 
    17     1    18     1     4     1
Selective dynamics
Direct
  0.0000000000000000  0.0000000000000000  0.0000000000000000   F   F   F
  0.0010121318942064  0.0016072353926494  0.3177176905850833   T   T   T
  0.2225892068185515  0.1124817506294469  0.2120730941464962   T   T   T
  0.1111100018356126  0.2222200036685749  0.1045899987034034   F   F   F
  0.3333300053688575  0.0000000000000000  0.0000000000000000   F   F   F
  0.3330777327087056  0.0010782264380989  0.3174544513577818   T   T   T
  0.5551518640868764  0.1109314001397288  0.2094654121763263   T   T   T
  0.4444400072044701  0.2222200036685749  0.1045899987034034   F   F   F
  0.6666700244273471  0.0000000000000000  0.0000000000000000   F   F   F
  0.6688876457066522  0.0045521738968367  0.3155930175453834   T   T   T
  0.8889668070215128  0.1111122325631978  0.2094846866474815   T   T   T
  0.7777799963834298  0.2222200036685749  0.1045899987034034   F   F   F
  0.9999999999751026  0.3333300054341350  0.0000000000000000   F   F   F
  0.0003495074844021  0.3325615899322371  0.3152378103577257   T   T   T
  0.2231928873017094  0.4450257180170492  0.2108949667345004   T   T   T
  0.1111100017544544  0.5555599928003048  0.1045899987034034   F   F   F
  0.3333300054630044  0.3333300054341350  0.0000000000000000   F   F   F
  0.3263876410986905  0.3198051457423153  0.3150047312150761   T   T   T
  0.5548157444454733  0.4448928897314577  0.2108411737193027   T   T   T
  0.4444400072423562  0.5555599928003048  0.1045899987034034   F   F   F
  0.6666700244024497  0.3333300054341350  0.0000000000000000   F   F   F
  0.6647382022234299  0.3322911585146236  0.3150485052732102   T   T   T
  0.8894985341170939  0.4459012495372767  0.2099672495970524   T   T   T
  0.7777799964213159  0.5555599928003048  0.1045899987034034   F   F   F
  0.0000000000469171  0.6666700243942074  0.0000000000000000   F   F   F
  0.0005151750505246  0.6684831816019081  0.3181171549194990   T   T   T
  0.2228099542508038  0.7777524185439310  0.2113617368710897   T   T   T
  0.1111100018825297  0.8888900280627823  0.1045899987034034   F   F   F
  0.3333300054157746  0.6666700243942074  0.0000000000000000   F   F   F
  0.3287394632099583  0.6671612667837042  0.3198925601399191   T   T   T
  0.5554017449229827  0.7775997521875321  0.2105129788579258   T   T   T
  0.4444400072513872  0.8888900280627823  0.1045899987034034   F   F   F
  0.6666700243552199  0.6666700243942074  0.0000000000000000   F   F   F
  0.6714733186429750  0.6676560448274281  0.3196939485109333   T   T   T
  0.8879717795252836  0.7778972178032860  0.2114568222228682   T   T   T
  0.7777799964303469  0.8888900280627823  0.1045899987034034   F   F   F
  0.6618090971085713  0.3236656733807261  0.4893676685459938   T   T   T
  0.7760168891652542  0.4257645225561916  0.5167218839236681   T   T   T
  0.5667673430058103  0.2105573175566493  0.5186329160120824   T   T   T
  0.7151499729762604  0.2705562836282126  0.4540986403339560   T   T   T
  0.5898685220857409  0.3873728535904086  0.4680096392151181   T   T   T
  0.4319392039362706  0.5298612950222886  0.3657797491871972   T   T   T
 
  0.00000000E+00  0.00000000E+00  0.00000000E+00
  0.00000000E+00  0.00000000E+00  0.00000000E+00
  0.00000000E+00  0.00000000E+00  0.00000000E+00
  0.00000000E+00  0.00000000E+00  0.00000000E+00
  0.00000000E+00  0.00000000E+00  0.00000000E+00
  0.00000000E+00  0.00000000E+00  0.00000000E+00
  0.00000000E+00  0.00000000E+00  0.00000000E+00
  0.00000000E+00  0.00000000E+00  0.00000000E+00
  0.00000000E+00  0.00000000E+00  0.00000000E+00
  0.00000000E+00  0.00000000E+00  0.00000000E+00
  0.00000000E+00  0.00000000E+00  0.00000000E+00
  0.00000000E+00  0.00000000E+00  0.00000000E+00
  0.00000000E+00  0.00000000E+00  0.00000000E+00
  0.00000000E+00  0.00000000E+00  0.00000000E+00
  0.00000000E+00  0.00000000E+00  0.00000000E+00
  0.00000000E+00  0.00000000E+00  0.00000000E+00
  0.00000000E+00  0.00000000E+00  0.00000000E+00
  0.00000000E+00  0.00000000E+00  0.00000000E+00
  0.00000000E+00  0.00000000E+00  0.00000000E+00
  0.00000000E+00  0.00000000E+00  0.00000000E+00
  0.00000000E+00  0.00000000E+00  0.00000000E+00
  0.00000000E+00  0.00000000E+00  0.00000000E+00
  0.00000000E+00  0.00000000E+00  0.00000000E+00
  0.00000000E+00  0.00000000E+00  0.00000000E+00
  0.00000000E+00  0.00000000E+00  0.00000000E+00
  0.00000000E+00  0.00000000E+00  0.00000000E+00
  0.00000000E+00  0.00000000E+00  0.00000000E+00
  0.00000000E+00  0.00000000E+00  0.00000000E+00
  0.00000000E+00  0.00000000E+00  0.00000000E+00
  0.00000000E+00  0.00000000E+00  0.00000000E+00
  0.00000000E+00  0.00000000E+00  0.00000000E+00
  0.00000000E+00  0.00000000E+00  0.00000000E+00
  0.00000000E+00  0.00000000E+00  0.00000000E+00
  0.00000000E+00  0.00000000E+00  0.00000000E+00
  0.00000000E+00  0.00000000E+00  0.00000000E+00
  0.00000000E+00  0.00000000E+00  0.00000000E+00
  0.00000000E+00  0.00000000E+00  0.00000000E+00
  0.00000000E+00  0.00000000E+00  0.00000000E+00
  0.00000000E+00  0.00000000E+00  0.00000000E+00
  0.00000000E+00  0.00000000E+00  0.00000000E+00
  0.00000000E+00  0.00000000E+00  0.00000000E+00
  0.00000000E+00  0.00000000E+00  0.00000000E+00
