Pd Cu Pd                                
   1.00000000000000     
     8.4004001617000004    0.0000000000000000    0.0000000000000000
    -4.2002000809000002    7.2749599419999997    0.0000000000000000
     0.0000000000000000    0.0000000000000000   21.8589000702000007
   Pd   Cu   Pd
    17     1    18
Selective dynamics
Direct
  0.0000000000000000  0.0000000000000000  0.0000000000000000   F   F   F
  0.0038701901141137  0.0039767905907883  0.3173008148206702   T   T   T
  0.2226722722390902  0.1117870544407283  0.2111515584030789   T   T   T
  0.1111100018356126  0.2222200036685749  0.1045899987034034   F   F   F
  0.3333300053688575  0.0000000000000000  0.0000000000000000   F   F   F
  0.3336867647027386  0.0040688897389909  0.3173260233448982   T   T   T
  0.5554596278624844  0.1112120482094302  0.2097977477391301   T   T   T
  0.4444400072044701  0.2222200036685749  0.1045899987034034   F   F   F
  0.6666700244273471  0.0000000000000000  0.0000000000000000   F   F   F
  0.6666815660526787  0.0000156144480572  0.3153371091498485   T   T   T
  0.8889662052078111  0.1111480548752302  0.2098052765694329   T   T   T
  0.7777799963834298  0.2222200036685749  0.1045899987034034   F   F   F
  0.9999999999751026  0.3333300054341350  0.0000000000000000   F   F   F
  0.0040406175236009  0.3331185394759069  0.3173849806820445   T   T   T
  0.2226628537585447  0.4441589483635764  0.2111904434542580   T   T   T
  0.1111100017544544  0.5555599928003048  0.1045899987034034   F   F   F
  0.3333300054630044  0.3333300054341350  0.0000000000000000   F   F   F
  0.3333972563752927  0.3333800833852409  0.3123373116075946   T   T   T
  0.5548065913665706  0.4442440625554695  0.2111282326701041   T   T   T
  0.4444400072423562  0.5555599928003048  0.1045899987034034   F   F   F
  0.6666700244024497  0.3333300054341350  0.0000000000000000   F   F   F
  0.6626018831287551  0.3331871727269521  0.3173370139687315   T   T   T
  0.8889120451852398  0.4444403411536029  0.2107636837696427   T   T   T
  0.7777799964213159  0.5555599928003048  0.1045899987034034   F   F   F
  0.0000000000469171  0.6666700243942074  0.0000000000000000   F   F   F
  0.0003561583766257  0.6667093619711958  0.3178654250714159   T   T   T
  0.2218801144461268  0.7774634840972180  0.2107951665062388   T   T   T
  0.1111100018825297  0.8888900280627823  0.1045899987034034   F   F   F
  0.3333300054157746  0.6666700243942074  0.0000000000000000   F   F   F
  0.3339601873960104  0.6630523258514246  0.3173568302106848   T   T   T
  0.5554458242108905  0.7777290661488777  0.2098144737055812   T   T   T
  0.4444400072513872  0.8888900280627823  0.1045899987034034   F   F   F
  0.6666700243552199  0.6666700243942074  0.0000000000000000   F   F   F
  0.6627418430122376  0.6629752822374841  0.3173390095493454   T   T   T
  0.8888478449759322  0.7774800196965619  0.2108284709999405   T   T   T
  0.7777799964303469  0.8888900280627823  0.1045899987034034   F   F   F
 
  0.00000000E+00  0.00000000E+00  0.00000000E+00
  0.00000000E+00  0.00000000E+00  0.00000000E+00
  0.00000000E+00  0.00000000E+00  0.00000000E+00
  0.00000000E+00  0.00000000E+00  0.00000000E+00
  0.00000000E+00  0.00000000E+00  0.00000000E+00
  0.00000000E+00  0.00000000E+00  0.00000000E+00
  0.00000000E+00  0.00000000E+00  0.00000000E+00
  0.00000000E+00  0.00000000E+00  0.00000000E+00
  0.00000000E+00  0.00000000E+00  0.00000000E+00
  0.00000000E+00  0.00000000E+00  0.00000000E+00
  0.00000000E+00  0.00000000E+00  0.00000000E+00
  0.00000000E+00  0.00000000E+00  0.00000000E+00
  0.00000000E+00  0.00000000E+00  0.00000000E+00
  0.00000000E+00  0.00000000E+00  0.00000000E+00
  0.00000000E+00  0.00000000E+00  0.00000000E+00
  0.00000000E+00  0.00000000E+00  0.00000000E+00
  0.00000000E+00  0.00000000E+00  0.00000000E+00
  0.00000000E+00  0.00000000E+00  0.00000000E+00
  0.00000000E+00  0.00000000E+00  0.00000000E+00
  0.00000000E+00  0.00000000E+00  0.00000000E+00
  0.00000000E+00  0.00000000E+00  0.00000000E+00
  0.00000000E+00  0.00000000E+00  0.00000000E+00
  0.00000000E+00  0.00000000E+00  0.00000000E+00
  0.00000000E+00  0.00000000E+00  0.00000000E+00
  0.00000000E+00  0.00000000E+00  0.00000000E+00
  0.00000000E+00  0.00000000E+00  0.00000000E+00
  0.00000000E+00  0.00000000E+00  0.00000000E+00
  0.00000000E+00  0.00000000E+00  0.00000000E+00
  0.00000000E+00  0.00000000E+00  0.00000000E+00
  0.00000000E+00  0.00000000E+00  0.00000000E+00
  0.00000000E+00  0.00000000E+00  0.00000000E+00
  0.00000000E+00  0.00000000E+00  0.00000000E+00
  0.00000000E+00  0.00000000E+00  0.00000000E+00
  0.00000000E+00  0.00000000E+00  0.00000000E+00
  0.00000000E+00  0.00000000E+00  0.00000000E+00
  0.00000000E+00  0.00000000E+00  0.00000000E+00
