Pd  Cu  Pd  C   H   O                   
   1.00000000000000     
     8.4004001617000004    0.0000000000000000    0.0000000000000000
    -4.2002000809000002    7.2749599419999997    0.0000000000000000
     0.0000000000000000    0.0000000000000000   21.8589000702000007
   Pd   Cu   Pd   C    H    O 
    17     1    18     1     4     1
Selective dynamics
Direct
  0.0000000000000000  0.0000000000000000  0.0000000000000000   F   F   F
  0.0056868216920426  0.0009659394407055  0.3168837036058207   T   T   T
  0.2225669227688600  0.1102467017406308  0.2109333682514352   T   T   T
  0.1111100018356126  0.2222200036685749  0.1045899987034034   F   F   F
  0.3333300053688575  0.0000000000000000  0.0000000000000000   F   F   F
  0.3362293451812763  0.9967178821522797  0.3165939130743999   T   T   T
  0.5568845152092854  0.1124794718253440  0.2108090970293949   T   T   T
  0.4444400072044701  0.2222200036685749  0.1045899987034034   F   F   F
  0.6666700244273471  0.0000000000000000  0.0000000000000000   F   F   F
  0.6698040346815582  0.0003087818506348  0.3151954160342324   T   T   T
  0.8893757547737808  0.1104147381085673  0.2093561375590839   T   T   T
  0.7777799963834298  0.2222200036685749  0.1045899987034034   F   F   F
  0.9999999999751026  0.3333300054341350  0.0000000000000000   F   F   F
  0.0038816144898367  0.3298733807027864  0.3155375533804020   T   T   T
  0.2232535265631216  0.4440136339810623  0.2106652856015129   T   T   T
  0.1111100017544544  0.5555599928003048  0.1045899987034034   F   F   F
  0.3333300054630044  0.3333300054341350  0.0000000000000000   F   F   F
  0.3222053027799906  0.3158697492118925  0.3102942846856003   T   T   T
  0.5558703342133495  0.4435577180807944  0.2104081743247845   T   T   T
  0.4444400072423562  0.5555599928003048  0.1045899987034034   F   F   F
  0.6666700244024497  0.3333300054341350  0.0000000000000000   F   F   F
  0.6672323808282739  0.3330075905612040  0.3217824270030368   T   T   T
  0.8879472131343894  0.4436211130790155  0.2113618269316665   T   T   T
  0.7777799964213159  0.5555599928003048  0.1045899987034034   F   F   F
  0.0000000000469171  0.6666700243942074  0.0000000000000000   F   F   F
  0.0095683918969641  0.6666328876408865  0.3177353634828049   T   T   T
  0.2244461010664476  0.7759204574019405  0.2112340676443049   T   T   T
  0.1111100018825297  0.8888900280627823  0.1045899987034034   F   F   F
  0.3333300054157746  0.6666700243942074  0.0000000000000000   F   F   F
  0.3375418599017699  0.6594446276584969  0.3209972622583739   T   T   T
  0.5552779675062756  0.7773704167621220  0.2094569537172598   T   T   T
  0.4444400072513872  0.8888900280627823  0.1045899987034034   F   F   F
  0.6666700243552199  0.6666700243942074  0.0000000000000000   F   F   F
  0.6795315072178519  0.6716434563905050  0.3143113682048785   T   T   T
  0.8908329928918283  0.7783964657317035  0.2108016150446187   T   T   T
  0.7777799964303469  0.8888900280627823  0.1045899987034034   F   F   F
  0.6398077463027437  0.3489445019965918  0.4259670912266699   T   T   T
  0.7273390823807909  0.4765915984658852  0.4505376780876271   T   T   T
  0.5145788800717643  0.2575366096445960  0.4512040178106997   T   T   T
  0.7173739757332381  0.2765000473461691  0.4202631257572571   T   T   T
  0.5501036788461722  0.4220231311710780  0.3915839304906492   T   T   T
  0.4620308591125175  0.4984614647976204  0.3715756967154947   T   T   T
 
  0.00000000E+00  0.00000000E+00  0.00000000E+00
  0.00000000E+00  0.00000000E+00  0.00000000E+00
  0.00000000E+00  0.00000000E+00  0.00000000E+00
  0.00000000E+00  0.00000000E+00  0.00000000E+00
  0.00000000E+00  0.00000000E+00  0.00000000E+00
  0.00000000E+00  0.00000000E+00  0.00000000E+00
  0.00000000E+00  0.00000000E+00  0.00000000E+00
  0.00000000E+00  0.00000000E+00  0.00000000E+00
  0.00000000E+00  0.00000000E+00  0.00000000E+00
  0.00000000E+00  0.00000000E+00  0.00000000E+00
  0.00000000E+00  0.00000000E+00  0.00000000E+00
  0.00000000E+00  0.00000000E+00  0.00000000E+00
  0.00000000E+00  0.00000000E+00  0.00000000E+00
  0.00000000E+00  0.00000000E+00  0.00000000E+00
  0.00000000E+00  0.00000000E+00  0.00000000E+00
  0.00000000E+00  0.00000000E+00  0.00000000E+00
  0.00000000E+00  0.00000000E+00  0.00000000E+00
  0.00000000E+00  0.00000000E+00  0.00000000E+00
  0.00000000E+00  0.00000000E+00  0.00000000E+00
  0.00000000E+00  0.00000000E+00  0.00000000E+00
  0.00000000E+00  0.00000000E+00  0.00000000E+00
  0.00000000E+00  0.00000000E+00  0.00000000E+00
  0.00000000E+00  0.00000000E+00  0.00000000E+00
  0.00000000E+00  0.00000000E+00  0.00000000E+00
  0.00000000E+00  0.00000000E+00  0.00000000E+00
  0.00000000E+00  0.00000000E+00  0.00000000E+00
  0.00000000E+00  0.00000000E+00  0.00000000E+00
  0.00000000E+00  0.00000000E+00  0.00000000E+00
  0.00000000E+00  0.00000000E+00  0.00000000E+00
  0.00000000E+00  0.00000000E+00  0.00000000E+00
  0.00000000E+00  0.00000000E+00  0.00000000E+00
  0.00000000E+00  0.00000000E+00  0.00000000E+00
  0.00000000E+00  0.00000000E+00  0.00000000E+00
  0.00000000E+00  0.00000000E+00  0.00000000E+00
  0.00000000E+00  0.00000000E+00  0.00000000E+00
  0.00000000E+00  0.00000000E+00  0.00000000E+00
  0.00000000E+00  0.00000000E+00  0.00000000E+00
  0.00000000E+00  0.00000000E+00  0.00000000E+00
  0.00000000E+00  0.00000000E+00  0.00000000E+00
  0.00000000E+00  0.00000000E+00  0.00000000E+00
  0.00000000E+00  0.00000000E+00  0.00000000E+00
  0.00000000E+00  0.00000000E+00  0.00000000E+00
