Ag   Cr   Ag   O    C    H              
   1.00000000000000     
     8.8247003554999992    0.0000000000000000    0.0000000000000000
    -4.4123501777999996    7.6424146886999997    0.0000000000000000
     0.0000000000000000    0.0000000000000000   22.2052993773999994
   Ag   Cr   Ag   O    C    H 
    17     1    18     1     1     4
Selective dynamics
Direct
  0.0000000000000000  0.0000000000000000  0.0000000000000000   F   F   F
  0.9961188379016374  0.0044061801136044  0.3292008683140993   T   T   T
  0.2223298279985583  0.1158138988644684  0.2215724997665142   T   T   T
  0.1111101706199165  0.2222203412373176  0.1081602170355964   F   F   F
  0.3333302980839079  0.0000000000000000  0.0000000000000000   F   F   F
  0.3146797685904805  0.9822513946175838  0.3256898956297399   T   T   T
  0.5542969649958843  0.1118032982623811  0.2189692406676643   T   T   T
  0.4444404687038244  0.2222203412373176  0.1081602170355964   F   F   F
  0.6666696616314383  0.0000000000000000  0.0000000000000000   F   F   F
  0.6621149439093745  0.0036820313983217  0.3362969087851497   T   T   T
  0.8847162970712575  0.1112901170014501  0.2194739446323760   T   T   T
  0.7777798322513547  0.2222203412373176  0.1081602170355964   F   F   F
  0.0000001068879243  0.3333305118559764  0.0000000000000000   F   F   F
  0.0101301966616255  0.3338009102483185  0.3284264342825651   T   T   T
  0.2240039193580615  0.4425409314879915  0.2191784055952926   T   T   T
  0.1111103244804070  0.5555600125020490  0.1081602170355964   F   F   F
  0.3333304049718322  0.3333305118559764  0.0000000000000000   F   F   F
  0.3393321124384525  0.3292557982650378  0.3333560469386678   T   T   T
  0.5507622471046376  0.4439941105907336  0.2215681432985236   T   T   T
  0.4444394893813666  0.5555600125020490  0.1081602170355964   F   F   F
  0.6666697685193554  0.3333305118559764  0.0000000000000000   F   F   F
  0.6840140372901944  0.3508871119884224  0.3258256939989518   T   T   T
  0.8882447114288837  0.4450865744398694  0.2176136278445471   T   T   T
  0.7777799861118453  0.5555600125020490  0.1081602170355964   F   F   F
  0.0000002607484149  0.6666701831207078  0.0000000000000000   F   F   F
  0.9972550023425460  0.6684193699542778  0.3269939581606877   T   T   T
  0.2209312504338455  0.7777710710268411  0.2176071644311049   T   T   T
  0.1111104313683313  0.8888905243580254  0.1081602170355964   F   F   F
  0.3333305588323228  0.6666701831207078  0.0000000000000000   F   F   F
  0.3317478690967284  0.6560173225320225  0.3286329276181105   T   T   T
  0.5549514787017926  0.7815425014645461  0.2195755276081852   T   T   T
  0.4444407294522392  0.8888905243580254  0.1081602170355964   F   F   F
  0.6666699223798460  0.6666701831207078  0.0000000000000000   F   F   F
  0.6612431051285927  0.6694469821816132  0.3291346582715467   T   T   T
  0.8874499490086921  0.7789218093972312  0.2176801983692021   T   T   T
  0.7777800929997625  0.8888905243580254  0.1081602170355964   F   F   F
  0.5127083032326305  0.1528181148012017  0.3903922213059905   T   T   T
  0.3521784804109222  0.3140696001845704  0.4327851355139312   T   T   T
  0.2847381237271827  0.3818376922234630  0.4122741452352459   T   T   T
  0.2532093800534230  0.2097689787528984  0.4606293826645855   T   T   T
  0.4569603866791090  0.4129616205415645  0.4606259287123866   T   T   T
  0.4254834452769464  0.2401172319320226  0.4080355685312027   T   T   T
 
  0.00000000E+00  0.00000000E+00  0.00000000E+00
  0.00000000E+00  0.00000000E+00  0.00000000E+00
  0.00000000E+00  0.00000000E+00  0.00000000E+00
  0.00000000E+00  0.00000000E+00  0.00000000E+00
  0.00000000E+00  0.00000000E+00  0.00000000E+00
  0.00000000E+00  0.00000000E+00  0.00000000E+00
  0.00000000E+00  0.00000000E+00  0.00000000E+00
  0.00000000E+00  0.00000000E+00  0.00000000E+00
  0.00000000E+00  0.00000000E+00  0.00000000E+00
  0.00000000E+00  0.00000000E+00  0.00000000E+00
  0.00000000E+00  0.00000000E+00  0.00000000E+00
  0.00000000E+00  0.00000000E+00  0.00000000E+00
  0.00000000E+00  0.00000000E+00  0.00000000E+00
  0.00000000E+00  0.00000000E+00  0.00000000E+00
  0.00000000E+00  0.00000000E+00  0.00000000E+00
  0.00000000E+00  0.00000000E+00  0.00000000E+00
  0.00000000E+00  0.00000000E+00  0.00000000E+00
  0.00000000E+00  0.00000000E+00  0.00000000E+00
  0.00000000E+00  0.00000000E+00  0.00000000E+00
  0.00000000E+00  0.00000000E+00  0.00000000E+00
  0.00000000E+00  0.00000000E+00  0.00000000E+00
  0.00000000E+00  0.00000000E+00  0.00000000E+00
  0.00000000E+00  0.00000000E+00  0.00000000E+00
  0.00000000E+00  0.00000000E+00  0.00000000E+00
  0.00000000E+00  0.00000000E+00  0.00000000E+00
  0.00000000E+00  0.00000000E+00  0.00000000E+00
  0.00000000E+00  0.00000000E+00  0.00000000E+00
  0.00000000E+00  0.00000000E+00  0.00000000E+00
  0.00000000E+00  0.00000000E+00  0.00000000E+00
  0.00000000E+00  0.00000000E+00  0.00000000E+00
  0.00000000E+00  0.00000000E+00  0.00000000E+00
  0.00000000E+00  0.00000000E+00  0.00000000E+00
  0.00000000E+00  0.00000000E+00  0.00000000E+00
  0.00000000E+00  0.00000000E+00  0.00000000E+00
  0.00000000E+00  0.00000000E+00  0.00000000E+00
  0.00000000E+00  0.00000000E+00  0.00000000E+00
  0.00000000E+00  0.00000000E+00  0.00000000E+00
  0.00000000E+00  0.00000000E+00  0.00000000E+00
  0.00000000E+00  0.00000000E+00  0.00000000E+00
  0.00000000E+00  0.00000000E+00  0.00000000E+00
  0.00000000E+00  0.00000000E+00  0.00000000E+00
  0.00000000E+00  0.00000000E+00  0.00000000E+00
