Rh Ag Rh O                              
   1.00000000000000     
     8.1670999526999992    0.0000000000000000    0.0000000000000000
    -4.0835499762999996    7.0729160343000004    0.0000000000000000
     0.0000000000000000    0.0000000000000000   21.6683998108000004
   Rh   Ag   Rh   O 
    17     1    18     1
Selective dynamics
Direct
  0.0000000000000000  0.0000000000000000  0.0000000000000000   F   F   F
  0.9957291141405865  0.9943657711065427  0.3058238661318513   T   T   T
  0.2239444287638225  0.1146415901461045  0.2047724089759265   T   T   T
  0.1111100018265887  0.2222200036558988  0.1025800034339497   F   F   F
  0.3333300053588815  0.0000000000000000  0.0000000000000000   F   F   F
  0.3386261134304160  0.0034862905347087  0.3055884507432611   T   T   T
  0.5551136072244951  0.1116468459368743  0.2034605696858026   T   T   T
  0.4444400071854702  0.2222200036558988  0.1025800034339497   F   F   F
  0.6666700244313759  0.0000000000000000  0.0000000000000000   F   F   F
  0.6666173320969578  0.0004524726244943  0.3060282577184302   T   T   T
  0.8899015721560356  0.1117461300905195  0.2049200413033118   T   T   T
  0.7777799963820016  0.2222200036558988  0.1025800034339497   F   F   F
  0.9999999999638760  0.3333300054131527  0.0000000000000000   F   F   F
  0.9951471246377361  0.3313895504681629  0.3095510482782078   T   T   T
  0.2234677844715331  0.4434101110445663  0.2041654604577296   T   T   T
  0.1111100017919213  0.5555599927871739  0.1025800034339497   F   F   F
  0.3333300054451982  0.3333300054131527  0.0000000000000000   F   F   F
  0.3336449061343554  0.3325236452888369  0.3287759168082237   T   T   T
  0.5523406825928049  0.4429904903662075  0.2047308529635881   T   T   T
  0.4444400071508028  0.5555599927871739  0.1025800034339497   F   F   F
  0.6666700243952519  0.3333300054131527  0.0000000000000000   F   F   F
  0.6632804102267266  0.3283347838060466  0.3055812179554132   T   T   T
  0.8898426075613696  0.4455268915823404  0.2031032147680649   T   T   T
  0.7777799963473342  0.5555599927871739  0.1025800034339497   F   F   F
  0.0000000000297220  0.6666700243765433  0.0000000000000000   F   F   F
  0.9981110968480060  0.6686396023942961  0.3096011173746810   T   T   T
  0.2212818105788231  0.7770481808298160  0.2030944608036220   T   T   T
  0.1111100018563107  0.8888900280324350  0.1025800034339497   F   F   F
  0.3333300053886035  0.6666700243765433  0.0000000000000000   F   F   F
  0.3353963708443841  0.6715581966147327  0.3094641034739194   T   T   T
  0.5551469084758424  0.7770644573478130  0.2048868847981388   T   T   T
  0.4444400072151922  0.8888900280324350  0.1025800034339497   F   F   F
  0.6666700243386572  0.6666700243765433  0.0000000000000000   F   F   F
  0.6720129607111219  0.6706730500128827  0.3058080066716187   T   T   T
  0.8898785767429128  0.7770538533411372  0.2045236479074317   T   T   T
  0.7777799964117236  0.8888900280324350  0.1025800034339497   F   F   F
  0.1100458095631738  0.5571950919074795  0.3679726852432497   T   T   T
 
  0.00000000E+00  0.00000000E+00  0.00000000E+00
  0.00000000E+00  0.00000000E+00  0.00000000E+00
  0.00000000E+00  0.00000000E+00  0.00000000E+00
  0.00000000E+00  0.00000000E+00  0.00000000E+00
  0.00000000E+00  0.00000000E+00  0.00000000E+00
  0.00000000E+00  0.00000000E+00  0.00000000E+00
  0.00000000E+00  0.00000000E+00  0.00000000E+00
  0.00000000E+00  0.00000000E+00  0.00000000E+00
  0.00000000E+00  0.00000000E+00  0.00000000E+00
  0.00000000E+00  0.00000000E+00  0.00000000E+00
  0.00000000E+00  0.00000000E+00  0.00000000E+00
  0.00000000E+00  0.00000000E+00  0.00000000E+00
  0.00000000E+00  0.00000000E+00  0.00000000E+00
  0.00000000E+00  0.00000000E+00  0.00000000E+00
  0.00000000E+00  0.00000000E+00  0.00000000E+00
  0.00000000E+00  0.00000000E+00  0.00000000E+00
  0.00000000E+00  0.00000000E+00  0.00000000E+00
  0.00000000E+00  0.00000000E+00  0.00000000E+00
  0.00000000E+00  0.00000000E+00  0.00000000E+00
  0.00000000E+00  0.00000000E+00  0.00000000E+00
  0.00000000E+00  0.00000000E+00  0.00000000E+00
  0.00000000E+00  0.00000000E+00  0.00000000E+00
  0.00000000E+00  0.00000000E+00  0.00000000E+00
  0.00000000E+00  0.00000000E+00  0.00000000E+00
  0.00000000E+00  0.00000000E+00  0.00000000E+00
  0.00000000E+00  0.00000000E+00  0.00000000E+00
  0.00000000E+00  0.00000000E+00  0.00000000E+00
  0.00000000E+00  0.00000000E+00  0.00000000E+00
  0.00000000E+00  0.00000000E+00  0.00000000E+00
  0.00000000E+00  0.00000000E+00  0.00000000E+00
  0.00000000E+00  0.00000000E+00  0.00000000E+00
  0.00000000E+00  0.00000000E+00  0.00000000E+00
  0.00000000E+00  0.00000000E+00  0.00000000E+00
  0.00000000E+00  0.00000000E+00  0.00000000E+00
  0.00000000E+00  0.00000000E+00  0.00000000E+00
  0.00000000E+00  0.00000000E+00  0.00000000E+00
  0.00000000E+00  0.00000000E+00  0.00000000E+00
