Ag Mn Ag O  C  H                        
   1.00000000000000     
     8.8247003554999992    0.0000000000000000    0.0000000000000000
    -4.4123501777999996    7.6424146886999997    0.0000000000000000
     0.0000000000000000    0.0000000000000000   22.2052993773999994
   Ag   Mn   Ag   O    C    H 
    17     1    18     1     1     4
Selective dynamics
Direct
  0.0000000000000000  0.0000000000000000  0.0000000000000000   F   F   F
  0.0050999473848049  0.0073698265554445  0.3263372418534543   T   T   T
  0.2233681571761838  0.1147337381511144  0.2186233254882043   T   T   T
  0.1111100018250966  0.2222200036476778  0.1081599965476912   F   F   F
  0.3333300053827557  0.0000000000000000  0.0000000000000000   F   F   F
  0.3328648320501192  0.0047532297574447  0.3264153340157173   T   T   T
  0.5560963817548080  0.1129958402938096  0.2177152009303313   T   T   T
  0.4444400072078523  0.2222200036476778  0.1081599965476912   F   F   F
  0.6666700243632988  0.0000000000000000  0.0000000000000000   F   F   F
  0.6656960838362671  0.9995294535564981  0.3281072850204866   T   T   T
  0.8868486182515892  0.1101056895643099  0.2172087752027978   T   T   T
  0.7777799963856893  0.2222200036476778  0.1081599965476912   F   F   F
  0.9999999999896119  0.3333300054715238  0.0000000000000000   F   F   F
  0.0051145321878186  0.3310770625719234  0.3263414120865730   T   T   T
  0.2233772897073176  0.4419726946552338  0.2186260313466675   T   T   T
  0.1111100017295215  0.5555599927438948  0.1081599965476912   F   F   F
  0.3333300054856849  0.3333300054715238  0.0000000000000000   F   F   F
  0.3262140685933473  0.3297583685953397  0.3287338884904967   T   T   T
  0.5537582221081648  0.4435578406622309  0.2208454097446930   T   T   T
  0.4444400072255874  0.5555599927438948  0.1081599965476912   F   F   F
  0.6666700244662280  0.3333300054715238  0.0000000000000000   F   F   F
  0.6579678387331979  0.3209293731100538  0.3280558077369619   T   T   T
  0.8887802980215923  0.4455065638058289  0.2192570412859665   T   T   T
  0.7777799964034244  0.5555599927438948  0.1081599965476912   F   F   F
  0.9999999999660858  0.6666700244012347  0.0000000000000000   F   F   F
  0.0161367781895358  0.6747276900948728  0.3307214963404627   T   T   T
  0.2193310355778549  0.7763340239259439  0.2182438281814626   T   T   T
  0.1111100017911895  0.8888900280489196  0.1081599965476912   F   F   F
  0.3333300054621589  0.6666700244012347  0.0000000000000000   F   F   F
  0.3328882905834485  0.6614616996671576  0.3264129699784121   T   T   T
  0.5561037878827544  0.7764475049585349  0.2177188145591269   T   T   T
  0.4444400072872554  0.8888900280489196  0.1081599965476912   F   F   F
  0.6666700244427020  0.6666700244012347  0.0000000000000000   F   F   F
  0.6579879527357348  0.6703997613953152  0.3280591879264984   T   T   T
  0.8887924810091079  0.7766220248341651  0.2192557129019785   T   T   T
  0.7777799964650924  0.8888900280489196  0.1081599965476912   F   F   F
  0.7775195790186625  0.5554279342990471  0.3956864649287822   T   T   T
  0.3038448249433354  0.3185179075894662  0.4175462434738231   T   T   T
  0.1763398779163958  0.2548115549682635  0.4396925651585529   T   T   T
  0.3776689793495686  0.2540528229164692  0.4312647155609501   T   T   T
  0.3777267826187403  0.4568719250308396  0.4312581659496983   T   T   T
  0.7746759637344058  0.5540004255918139  0.4392500874138426   T   T   T
 
  0.00000000E+00  0.00000000E+00  0.00000000E+00
  0.00000000E+00  0.00000000E+00  0.00000000E+00
  0.00000000E+00  0.00000000E+00  0.00000000E+00
  0.00000000E+00  0.00000000E+00  0.00000000E+00
  0.00000000E+00  0.00000000E+00  0.00000000E+00
  0.00000000E+00  0.00000000E+00  0.00000000E+00
  0.00000000E+00  0.00000000E+00  0.00000000E+00
  0.00000000E+00  0.00000000E+00  0.00000000E+00
  0.00000000E+00  0.00000000E+00  0.00000000E+00
  0.00000000E+00  0.00000000E+00  0.00000000E+00
  0.00000000E+00  0.00000000E+00  0.00000000E+00
  0.00000000E+00  0.00000000E+00  0.00000000E+00
  0.00000000E+00  0.00000000E+00  0.00000000E+00
  0.00000000E+00  0.00000000E+00  0.00000000E+00
  0.00000000E+00  0.00000000E+00  0.00000000E+00
  0.00000000E+00  0.00000000E+00  0.00000000E+00
  0.00000000E+00  0.00000000E+00  0.00000000E+00
  0.00000000E+00  0.00000000E+00  0.00000000E+00
  0.00000000E+00  0.00000000E+00  0.00000000E+00
  0.00000000E+00  0.00000000E+00  0.00000000E+00
  0.00000000E+00  0.00000000E+00  0.00000000E+00
  0.00000000E+00  0.00000000E+00  0.00000000E+00
  0.00000000E+00  0.00000000E+00  0.00000000E+00
  0.00000000E+00  0.00000000E+00  0.00000000E+00
  0.00000000E+00  0.00000000E+00  0.00000000E+00
  0.00000000E+00  0.00000000E+00  0.00000000E+00
  0.00000000E+00  0.00000000E+00  0.00000000E+00
  0.00000000E+00  0.00000000E+00  0.00000000E+00
  0.00000000E+00  0.00000000E+00  0.00000000E+00
  0.00000000E+00  0.00000000E+00  0.00000000E+00
  0.00000000E+00  0.00000000E+00  0.00000000E+00
  0.00000000E+00  0.00000000E+00  0.00000000E+00
  0.00000000E+00  0.00000000E+00  0.00000000E+00
  0.00000000E+00  0.00000000E+00  0.00000000E+00
  0.00000000E+00  0.00000000E+00  0.00000000E+00
  0.00000000E+00  0.00000000E+00  0.00000000E+00
  0.00000000E+00  0.00000000E+00  0.00000000E+00
  0.00000000E+00  0.00000000E+00  0.00000000E+00
  0.00000000E+00  0.00000000E+00  0.00000000E+00
  0.00000000E+00  0.00000000E+00  0.00000000E+00
  0.00000000E+00  0.00000000E+00  0.00000000E+00
  0.00000000E+00  0.00000000E+00  0.00000000E+00
