Pt Ag Pt O                              
   1.00000000000000     
     8.4428997040000002    0.0000000000000000    0.0000000000000000
    -4.2214498520000001    7.3117656252999996    0.0000000000000000
     0.0000000000000000    0.0000000000000000   21.8936004639000004
   Pt   Ag   Pt   O 
    17     1    18     1
Selective dynamics
Direct
  0.0000000000000000  0.0000000000000000  0.0000000000000000   F   F   F
  0.9980338698506588  0.0018097579117792  0.3152879807147062   T   T   T
  0.2231801500220739  0.1149119690117035  0.2117905430828639   T   T   T
  0.1111100018289619  0.2222200036579167  0.1049600020238373   F   F   F
  0.3333300054087687  0.0000000000000000  0.0000000000000000   F   F   F
  0.3334974680283848  0.0019420867358305  0.3151773877632719   T   T   T
  0.5542423133469446  0.1119072361752569  0.2090975490395430   T   T   T
  0.4444400072377235  0.2222200036579167  0.1049600020238373   F   F   F
  0.6666700244388011  0.0000000000000000  0.0000000000000000   F   F   F
  0.6699648985128082  0.0100816523589359  0.3148182186339269   T   T   T
  0.8893756778720834  0.1120531361464883  0.2091789352937750   T   T   T
  0.7777799964201932  0.2222200036579167  0.1049600020238373   F   F   F
  0.9999999999706688  0.3333300053501134  0.0000000000000000   F   F   F
  0.9988977471010219  0.3368578657428976  0.3151458283139577   T   T   T
  0.2248339030454323  0.4441119022091058  0.2137210964643305   T   T   T
  0.1111100017987212  0.5555599927799051  0.1049600020238373   F   F   F
  0.3333300053794375  0.3333300053501134  0.0000000000000000   F   F   F
  0.3243649928347984  0.3193080180985846  0.3390895136826674   T   T   T
  0.5508900519930532  0.4441511502066545  0.2134311903234828   T   T   T
  0.4444400072074828  0.5555599927799051  0.1049600020238373   F   F   F
  0.6666700244094699  0.3333300053501134  0.0000000000000000   F   F   F
  0.6678938572322872  0.3371945254386391  0.3147140180371570   T   T   T
  0.8883778527530639  0.4447485519673585  0.2089666482079338   T   T   T
  0.7777799963899525  0.5555599927799051  0.1049600020238373   F   F   F
  0.9999999999925109  0.6666700244238228  0.0000000000000000   F   F   F
  0.0004840774004239  0.6709660761395779  0.3163575483850392   T   T   T
  0.2219105734433497  0.7746435331532207  0.2106828424721159   T   T   T
  0.1111100017530902  0.8888900279449743  0.1049600020238373   F   F   F
  0.3333300054012795  0.6666700244238228  0.0000000000000000   F   F   F
  0.3264989987614357  0.6793018633780199  0.3218559635250932   T   T   T
  0.5540383577814936  0.7766470158872417  0.2109509148501035   T   T   T
  0.4444400071618517  0.8888900279449743  0.1049600020238373   F   F   F
  0.6666700244313120  0.6666700244238228  0.0000000000000000   F   F   F
  0.6823466834538526  0.6793362445368202  0.3214488342842969   T   T   T
  0.8844662256798893  0.7747444898571466  0.2106154574522301   T   T   T
  0.7777799963443215  0.8888900279449743  0.1049600020238373   F   F   F
  0.4695090344589422  0.6086530040510987  0.3775538047861755   T   T   T
 
  0.00000000E+00  0.00000000E+00  0.00000000E+00
  0.00000000E+00  0.00000000E+00  0.00000000E+00
  0.00000000E+00  0.00000000E+00  0.00000000E+00
  0.00000000E+00  0.00000000E+00  0.00000000E+00
  0.00000000E+00  0.00000000E+00  0.00000000E+00
  0.00000000E+00  0.00000000E+00  0.00000000E+00
  0.00000000E+00  0.00000000E+00  0.00000000E+00
  0.00000000E+00  0.00000000E+00  0.00000000E+00
  0.00000000E+00  0.00000000E+00  0.00000000E+00
  0.00000000E+00  0.00000000E+00  0.00000000E+00
  0.00000000E+00  0.00000000E+00  0.00000000E+00
  0.00000000E+00  0.00000000E+00  0.00000000E+00
  0.00000000E+00  0.00000000E+00  0.00000000E+00
  0.00000000E+00  0.00000000E+00  0.00000000E+00
  0.00000000E+00  0.00000000E+00  0.00000000E+00
  0.00000000E+00  0.00000000E+00  0.00000000E+00
  0.00000000E+00  0.00000000E+00  0.00000000E+00
  0.00000000E+00  0.00000000E+00  0.00000000E+00
  0.00000000E+00  0.00000000E+00  0.00000000E+00
  0.00000000E+00  0.00000000E+00  0.00000000E+00
  0.00000000E+00  0.00000000E+00  0.00000000E+00
  0.00000000E+00  0.00000000E+00  0.00000000E+00
  0.00000000E+00  0.00000000E+00  0.00000000E+00
  0.00000000E+00  0.00000000E+00  0.00000000E+00
  0.00000000E+00  0.00000000E+00  0.00000000E+00
  0.00000000E+00  0.00000000E+00  0.00000000E+00
  0.00000000E+00  0.00000000E+00  0.00000000E+00
  0.00000000E+00  0.00000000E+00  0.00000000E+00
  0.00000000E+00  0.00000000E+00  0.00000000E+00
  0.00000000E+00  0.00000000E+00  0.00000000E+00
  0.00000000E+00  0.00000000E+00  0.00000000E+00
  0.00000000E+00  0.00000000E+00  0.00000000E+00
  0.00000000E+00  0.00000000E+00  0.00000000E+00
  0.00000000E+00  0.00000000E+00  0.00000000E+00
  0.00000000E+00  0.00000000E+00  0.00000000E+00
  0.00000000E+00  0.00000000E+00  0.00000000E+00
  0.00000000E+00  0.00000000E+00  0.00000000E+00
