Pt  Ag  Pt  C   H   O                   
   1.00000000000000     
     8.4428997040000002    0.0000000000000000    0.0000000000000000
    -4.2214498520000001    7.3117656252999996    0.0000000000000000
     0.0000000000000000    0.0000000000000000   21.8936004639000004
   Pt   Ag   Pt   C    H    O 
    17     1    18     1     4     1
Selective dynamics
Direct
  0.0000000000000000  0.0000000000000000  0.0000000000000000   F   F   F
  0.9942310681827313  0.9986203515686674  0.3149664876023111   T   T   T
  0.2207774718155702  0.1135380213395421  0.2118863880087070   T   T   T
  0.1111100018289619  0.2222200036579167  0.1049600020238373   F   F   F
  0.3333300054087687  0.0000000000000000  0.0000000000000000   F   F   F
  0.3276164438195376  0.9962981323706646  0.3159830574526568   T   T   T
  0.5526672690969961  0.1134530444158719  0.2112696822950760   T   T   T
  0.4444400072377235  0.2222200036579167  0.1049600020238373   F   F   F
  0.6666700244388011  0.0000000000000000  0.0000000000000000   F   F   F
  0.6618797916694269  0.0001613210127124  0.3152517846762117   T   T   T
  0.8862121653677753  0.1108652246274035  0.2091224642460480   T   T   T
  0.7777799964201932  0.2222200036579167  0.1049600020238373   F   F   F
  0.9999999999706688  0.3333300053501134  0.0000000000000000   F   F   F
  0.9933586251915690  0.3330270953121864  0.3141045500362111   T   T   T
  0.2215635966848675  0.4420621079758535  0.2115974773268922   T   T   T
  0.1111100017987212  0.5555599927799051  0.1049600020238373   F   F   F
  0.3333300053794375  0.3333300053501134  0.0000000000000000   F   F   F
  0.3169477054454667  0.3249180770738676  0.3331069689819583   T   T   T
  0.5496836133084430  0.4417259114743968  0.2137784524526217   T   T   T
  0.4444400072074828  0.5555599927799051  0.1049600020238373   F   F   F
  0.6666700244094699  0.3333300053501134  0.0000000000000000   F   F   F
  0.6630506147015351  0.3288389053726575  0.3220080963716361   T   T   T
  0.8825414951776949  0.4431266196127158  0.2103453553653420   T   T   T
  0.7777799963899525  0.5555599927799051  0.1049600020238373   F   F   F
  0.9999999999925109  0.6666700244238228  0.0000000000000000   F   F   F
  0.0000661070905751  0.6684892622734003  0.3164458369622234   T   T   T
  0.2177119159185273  0.7764523024939639  0.2085812160909253   T   T   T
  0.1111100017530902  0.8888900279449743  0.1049600020238373   F   F   F
  0.3333300054012795  0.6666700244238228  0.0000000000000000   F   F   F
  0.3256531811704671  0.6693990560003639  0.3147969072487802   T   T   T
  0.5522253795797624  0.7765844712195914  0.2098402330732531   T   T   T
  0.4444400071618517  0.8888900279449743  0.1049600020238373   F   F   F
  0.6666700244313120  0.6666700244238228  0.0000000000000000   F   F   F
  0.6733423722188749  0.6736092382900956  0.3180155585520712   T   T   T
  0.8809155156395261  0.7749140651287872  0.2108089969281036   T   T   T
  0.7777799963443215  0.8888900279449743  0.1049600020238373   F   F   F
  0.6609975279823936  0.3423952558572892  0.4326113764092365   T   T   T
  0.7590615686393035  0.4595727314744526  0.4596544031629756   T   T   T
  0.5337801604325532  0.2559721188212320  0.4571795596929210   T   T   T
  0.7250842922128484  0.2604319061445781  0.4226245425800473   T   T   T
  0.6066336619558427  0.4391926638640340  0.4035341663941985   T   T   T
  0.5393970994477367  0.5588300842797986  0.3935932332520923   T   T   T
 
  0.00000000E+00  0.00000000E+00  0.00000000E+00
  0.00000000E+00  0.00000000E+00  0.00000000E+00
  0.00000000E+00  0.00000000E+00  0.00000000E+00
  0.00000000E+00  0.00000000E+00  0.00000000E+00
  0.00000000E+00  0.00000000E+00  0.00000000E+00
  0.00000000E+00  0.00000000E+00  0.00000000E+00
  0.00000000E+00  0.00000000E+00  0.00000000E+00
  0.00000000E+00  0.00000000E+00  0.00000000E+00
  0.00000000E+00  0.00000000E+00  0.00000000E+00
  0.00000000E+00  0.00000000E+00  0.00000000E+00
  0.00000000E+00  0.00000000E+00  0.00000000E+00
  0.00000000E+00  0.00000000E+00  0.00000000E+00
  0.00000000E+00  0.00000000E+00  0.00000000E+00
  0.00000000E+00  0.00000000E+00  0.00000000E+00
  0.00000000E+00  0.00000000E+00  0.00000000E+00
  0.00000000E+00  0.00000000E+00  0.00000000E+00
  0.00000000E+00  0.00000000E+00  0.00000000E+00
  0.00000000E+00  0.00000000E+00  0.00000000E+00
  0.00000000E+00  0.00000000E+00  0.00000000E+00
  0.00000000E+00  0.00000000E+00  0.00000000E+00
  0.00000000E+00  0.00000000E+00  0.00000000E+00
  0.00000000E+00  0.00000000E+00  0.00000000E+00
  0.00000000E+00  0.00000000E+00  0.00000000E+00
  0.00000000E+00  0.00000000E+00  0.00000000E+00
  0.00000000E+00  0.00000000E+00  0.00000000E+00
  0.00000000E+00  0.00000000E+00  0.00000000E+00
  0.00000000E+00  0.00000000E+00  0.00000000E+00
  0.00000000E+00  0.00000000E+00  0.00000000E+00
  0.00000000E+00  0.00000000E+00  0.00000000E+00
  0.00000000E+00  0.00000000E+00  0.00000000E+00
  0.00000000E+00  0.00000000E+00  0.00000000E+00
  0.00000000E+00  0.00000000E+00  0.00000000E+00
  0.00000000E+00  0.00000000E+00  0.00000000E+00
  0.00000000E+00  0.00000000E+00  0.00000000E+00
  0.00000000E+00  0.00000000E+00  0.00000000E+00
  0.00000000E+00  0.00000000E+00  0.00000000E+00
  0.00000000E+00  0.00000000E+00  0.00000000E+00
  0.00000000E+00  0.00000000E+00  0.00000000E+00
  0.00000000E+00  0.00000000E+00  0.00000000E+00
  0.00000000E+00  0.00000000E+00  0.00000000E+00
  0.00000000E+00  0.00000000E+00  0.00000000E+00
  0.00000000E+00  0.00000000E+00  0.00000000E+00
