Ag Ta Ag O                              
   1.00000000000000     
     8.8247003554999992    0.0000000000000000    0.0000000000000000
    -4.4123501777999996    7.6424146886999997    0.0000000000000000
     0.0000000000000000    0.0000000000000000   22.2052993773999994
   Ag   Ta   Ag   O 
    17     1    18     1
Selective dynamics
Direct
  0.0000000000000000  0.0000000000000000  0.0000000000000000   F   F   F
  0.0131298682005548  0.0084515616544788  0.3239125209503739   T   T   T
  0.2303052991748926  0.1168346594229959  0.2167602428768285   T   T   T
  0.1111100018250966  0.2222200036476778  0.1081599965476912   F   F   F
  0.3333300053827557  0.0000000000000000  0.0000000000000000   F   F   F
  0.3434317093395650  0.0085375973215899  0.3249355325492504   T   T   T
  0.5621207899302187  0.1145095835465737  0.2161395881311940   T   T   T
  0.4444400072078523  0.2222200036476778  0.1081599965476912   F   F   F
  0.6666700243632988  0.0000000000000000  0.0000000000000000   F   F   F
  0.6761475900259890  0.0047424582036241  0.3229626815458961   T   T   T
  0.8953290572487125  0.1143136408451156  0.2158937867819815   T   T   T
  0.7777799963856893  0.2222200036476778  0.1081599965476912   F   F   F
  0.9999999999896119  0.3333300054715238  0.0000000000000000   F   F   F
  0.0131176354588340  0.3379663524042845  0.3239043159655287   T   T   T
  0.2302463923184072  0.4468291673574724  0.2167444032349659   T   T   T
  0.1111100017295215  0.5555599927438948  0.1081599965476912   F   F   F
  0.3333300054856849  0.3333300054715238  0.0000000000000000   F   F   F
  0.3426999501544583  0.3380183018866048  0.3399955358527822   T   T   T
  0.5586459390488386  0.4460108931929266  0.2170652635059989   T   T   T
  0.4444400072255874  0.5555599927438948  0.1081599965476912   F   F   F
  0.6666700244662280  0.3333300054715238  0.0000000000000000   F   F   F
  0.6725780907103837  0.3377282943392718  0.3248264375373889   T   T   T
  0.8954901924315691  0.4478304888288052  0.2161205143185167   T   T   T
  0.7777799964034244  0.5555599927438948  0.1081599965476912   F   F   F
  0.9999999999660858  0.6666700244012347  0.0000000000000000   F   F   F
  0.0091397551745813  0.6712207252559387  0.3234983552058610   T   T   T
  0.2289471816226871  0.7811173499756215  0.2166899064470099   T   T   T
  0.1111100017911895  0.8888900280489196  0.1081599965476912   F   F   F
  0.3333300054621589  0.6666700244012347  0.0000000000000000   F   F   F
  0.3434303851631700  0.6682164824128245  0.3249392361018735   T   T   T
  0.5621284329152976  0.7809579325495083  0.2161415916618455   T   T   T
  0.4444400072872554  0.8888900280489196  0.1081599965476912   F   F   F
  0.6666700244427020  0.6666700244012347  0.0000000000000000   F   F   F
  0.6725938211592722  0.6682039005582850  0.3248351082733543   T   T   T
  0.8955055834070699  0.7809939061620468  0.2161038053459529   T   T   T
  0.7777799964650924  0.8888900280489196  0.1081599965476912   F   F   F
  0.3381317524348976  0.3357342187338372  0.4179065133379591   T   T   T
 
  0.00000000E+00  0.00000000E+00  0.00000000E+00
  0.00000000E+00  0.00000000E+00  0.00000000E+00
  0.00000000E+00  0.00000000E+00  0.00000000E+00
  0.00000000E+00  0.00000000E+00  0.00000000E+00
  0.00000000E+00  0.00000000E+00  0.00000000E+00
  0.00000000E+00  0.00000000E+00  0.00000000E+00
  0.00000000E+00  0.00000000E+00  0.00000000E+00
  0.00000000E+00  0.00000000E+00  0.00000000E+00
  0.00000000E+00  0.00000000E+00  0.00000000E+00
  0.00000000E+00  0.00000000E+00  0.00000000E+00
  0.00000000E+00  0.00000000E+00  0.00000000E+00
  0.00000000E+00  0.00000000E+00  0.00000000E+00
  0.00000000E+00  0.00000000E+00  0.00000000E+00
  0.00000000E+00  0.00000000E+00  0.00000000E+00
  0.00000000E+00  0.00000000E+00  0.00000000E+00
  0.00000000E+00  0.00000000E+00  0.00000000E+00
  0.00000000E+00  0.00000000E+00  0.00000000E+00
  0.00000000E+00  0.00000000E+00  0.00000000E+00
  0.00000000E+00  0.00000000E+00  0.00000000E+00
  0.00000000E+00  0.00000000E+00  0.00000000E+00
  0.00000000E+00  0.00000000E+00  0.00000000E+00
  0.00000000E+00  0.00000000E+00  0.00000000E+00
  0.00000000E+00  0.00000000E+00  0.00000000E+00
  0.00000000E+00  0.00000000E+00  0.00000000E+00
  0.00000000E+00  0.00000000E+00  0.00000000E+00
  0.00000000E+00  0.00000000E+00  0.00000000E+00
  0.00000000E+00  0.00000000E+00  0.00000000E+00
  0.00000000E+00  0.00000000E+00  0.00000000E+00
  0.00000000E+00  0.00000000E+00  0.00000000E+00
  0.00000000E+00  0.00000000E+00  0.00000000E+00
  0.00000000E+00  0.00000000E+00  0.00000000E+00
  0.00000000E+00  0.00000000E+00  0.00000000E+00
  0.00000000E+00  0.00000000E+00  0.00000000E+00
  0.00000000E+00  0.00000000E+00  0.00000000E+00
  0.00000000E+00  0.00000000E+00  0.00000000E+00
  0.00000000E+00  0.00000000E+00  0.00000000E+00
  0.00000000E+00  0.00000000E+00  0.00000000E+00
