Cu Fe Cu O  C  H                        
   1.00000000000000     
     7.7216000556999997    0.0000000000000000    0.0000000000000000
     0.0000000000000000    7.7216000556999997    0.0000000000000000
     0.0000000000000000    0.0000000000000000   20.4599990845000015
   Cu   Fe   Cu   O    C    H 
    17     1    18     1     1     4
Selective dynamics
Direct
  0.0000000000000000  0.0000000000000000  0.0889500007054593   F   F   F
  0.0014931432195440 -0.0003388449038239  0.2722881748128502   T   T   T
  0.1666699946535033  0.1666699946535033  0.0000000000000000   F   F   F
  0.1637560791880912  0.1647190077655696  0.1798120315724241   T   T   T
  0.3333300053659229  0.0000000000000000  0.0889500007054593   F   F   F
  0.3318021564174299  0.9920243579960315  0.2674550348100289   T   T   T
  0.5000000000194262  0.1666699946535033  0.0000000000000000   F   F   F
  0.5008820534427909  0.1648506138283595  0.1799940821688829   T   T   T
  0.6666700243299957  0.0000000000000000  0.0889500007054593   F   F   F
  0.6621326016415182 -0.0007559171103040  0.2722451312970495   T   T   T
  0.8333299755987795  0.1666699946535033  0.0000000000000000   F   F   F
  0.8325787802997251  0.1673639535849872  0.1768402104273175   T   T   T
  0.0000000000000000  0.3333300053659229  0.0889500007054593   F   F   F
  0.0003791657181499  0.3402752493351547  0.2717950078675558   T   T   T
  0.1666699946535033  0.5000000000194262  0.0000000000000000   F   F   F
  0.1650507996951582  0.4976453504830992  0.1803245149640827   T   T   T
  0.3333300053659229  0.3333300053659229  0.0889500007054593   F   F   F
  0.3301718076162052  0.3223254551611850  0.2665617141607873   T   T   T
  0.5000000000194262  0.5000000000194262  0.0000000000000000   F   F   F
  0.5000405678946127  0.4974719819330761  0.1802891618766229   T   T   T
  0.6666700243299957  0.3333300053659229  0.0889500007054593   F   F   F
  0.6615634328682156  0.3396922911685393  0.2715372256255617   T   T   T
  0.8333299755987795  0.5000000000194262  0.0000000000000000   F   F   F
  0.8325889877252363  0.5009381141498607  0.1796832605046575   T   T   T
  0.0000000000000000  0.6666700243299957  0.0889500007054593   F   F   F
  0.0016692102651222  0.6683006842056364  0.2666650879993485   T   T   T
  0.1666699946535033  0.8333299755987795  0.0000000000000000   F   F   F
  0.1639925439530724  0.8343315080795878  0.1802461126568841   T   T   T
  0.3333300053659229  0.6666700243299957  0.0889500007054593   F   F   F
  0.3341372265602849  0.6614664837905700  0.2678616487928299   T   T   T
  0.5000000000194262  0.8333299755987795  0.0000000000000000   F   F   F
  0.5020518891724769  0.8343820958413597  0.1802279308299793   T   T   T
  0.6666700243299957  0.6666700243299957  0.0889500007054593   F   F   F
  0.6653524479677517  0.6678912790571215  0.2669077300950605   T   T   T
  0.8333299755987795  0.8333299755987795  0.0000000000000000   F   F   F
  0.8330032460549068  0.8361086790396596  0.1805631328918957   T   T   T
  0.8311270707915283  0.1718593453665312  0.3110371787821974   T   T   T
  0.3393970847804638  0.3166469043106926  0.4386566061511200   T   T   T
  0.2343886397042879  0.3494911931962630  0.4051458168895167   T   T   T
  0.2976447728260989  0.2104363049552721  0.4699951169009721   T   T   T
  0.3706351659671320  0.4298606977224305  0.4682292777661879   T   T   T
  0.4540187553200010  0.2770598542196142  0.4113255473473950   T   T   T
 
  0.00000000E+00  0.00000000E+00  0.00000000E+00
  0.00000000E+00  0.00000000E+00  0.00000000E+00
  0.00000000E+00  0.00000000E+00  0.00000000E+00
  0.00000000E+00  0.00000000E+00  0.00000000E+00
  0.00000000E+00  0.00000000E+00  0.00000000E+00
  0.00000000E+00  0.00000000E+00  0.00000000E+00
  0.00000000E+00  0.00000000E+00  0.00000000E+00
  0.00000000E+00  0.00000000E+00  0.00000000E+00
  0.00000000E+00  0.00000000E+00  0.00000000E+00
  0.00000000E+00  0.00000000E+00  0.00000000E+00
  0.00000000E+00  0.00000000E+00  0.00000000E+00
  0.00000000E+00  0.00000000E+00  0.00000000E+00
  0.00000000E+00  0.00000000E+00  0.00000000E+00
  0.00000000E+00  0.00000000E+00  0.00000000E+00
  0.00000000E+00  0.00000000E+00  0.00000000E+00
  0.00000000E+00  0.00000000E+00  0.00000000E+00
  0.00000000E+00  0.00000000E+00  0.00000000E+00
  0.00000000E+00  0.00000000E+00  0.00000000E+00
  0.00000000E+00  0.00000000E+00  0.00000000E+00
  0.00000000E+00  0.00000000E+00  0.00000000E+00
  0.00000000E+00  0.00000000E+00  0.00000000E+00
  0.00000000E+00  0.00000000E+00  0.00000000E+00
  0.00000000E+00  0.00000000E+00  0.00000000E+00
  0.00000000E+00  0.00000000E+00  0.00000000E+00
  0.00000000E+00  0.00000000E+00  0.00000000E+00
  0.00000000E+00  0.00000000E+00  0.00000000E+00
  0.00000000E+00  0.00000000E+00  0.00000000E+00
  0.00000000E+00  0.00000000E+00  0.00000000E+00
  0.00000000E+00  0.00000000E+00  0.00000000E+00
  0.00000000E+00  0.00000000E+00  0.00000000E+00
  0.00000000E+00  0.00000000E+00  0.00000000E+00
  0.00000000E+00  0.00000000E+00  0.00000000E+00
  0.00000000E+00  0.00000000E+00  0.00000000E+00
  0.00000000E+00  0.00000000E+00  0.00000000E+00
  0.00000000E+00  0.00000000E+00  0.00000000E+00
  0.00000000E+00  0.00000000E+00  0.00000000E+00
  0.00000000E+00  0.00000000E+00  0.00000000E+00
  0.00000000E+00  0.00000000E+00  0.00000000E+00
  0.00000000E+00  0.00000000E+00  0.00000000E+00
  0.00000000E+00  0.00000000E+00  0.00000000E+00
  0.00000000E+00  0.00000000E+00  0.00000000E+00
  0.00000000E+00  0.00000000E+00  0.00000000E+00
