Au   Mn   Au   O    C    H              
   1.00000000000000     
     8.8458995818999995    0.0000000000000000    0.0000000000000000
    -4.4229497909999997    7.6607737573000003    0.0000000000000000
     0.0000000000000000    0.0000000000000000   22.2227001189999989
   Au   Mn   Au   O    C    H 
    17     1    18     1     1     4
Selective dynamics
Direct
  0.0000000000000000  0.0000000000000000  0.0000000000000000   F   F   F
  0.0206504341458142  0.0316534605618557  0.3284704361266648   T   T   T
  0.2266255534683168  0.1201001399007851  0.2178268155570038   T   T   T
  0.1111101863827386  0.2222203727629690  0.1083401201072576   F   F   F
  0.3333295808640244  0.0000000000000000  0.0000000000000000   F   F   F
  0.3439529736363411  0.0318505685887800  0.3284659362234379   T   T   T
  0.5580866052939726  0.1163472552822284  0.2172958269760983   T   T   T
  0.4444397672467701  0.2222203727629690  0.1083401201072576   F   F   F
  0.6666704664008094  0.0000000000000000  0.0000000000000000   F   F   F
  0.6815448685670660  0.0300178555437540  0.3287363804074346   T   T   T
  0.8915863403171187  0.1163981639779266  0.2172724274793154   T   T   T
  0.7777806527835551  0.2222203727629690  0.1083401201072576   F   F   F
  0.0000004891421028  0.3333305591444571  0.0000000000000000   F   F   F
  0.0145124573756874  0.3516263611666020  0.3311735279957162   T   T   T
  0.2294820282296186  0.4488215040580741  0.2234638443306949   T   T   T
  0.1111095919175682  0.5555600693656331  0.1083401201072576   F   F   F
  0.3333300700061272  0.3333305591444571  0.0000000000000000   F   F   F
  0.3383054781175687  0.3447419390872071  0.3302235984242898   T   T   T
  0.5524607226988678  0.4487575418506609  0.2234867938371607   T   T   T
  0.4444403032488680  0.5555600693656331  0.1083401201072576   F   F   F
  0.6666698250756369  0.3333305591444571  0.0000000000000000   F   F   F
  0.6700724445364514  0.3515467347451278  0.3311541784118361   T   T   T
  0.8906105740915891  0.4480565682714754  0.2175631212278404   T   T   T
  0.7777800583183776  0.5555600693656331  0.1083401201072576   F   F   F
  0.9999999419417591  0.6666702557471211  0.0000000000000000   F   F   F
  0.0068719159202644  0.6804142982336430  0.3273508602035449   T   T   T
  0.2255660924058063  0.7809550561781080  0.2184068530830885   T   T   T
  0.1111100810596639  0.8888906285100902  0.1083401201072576   F   F   F
  0.3333306060082251  0.6666702557471211  0.0000000000000000   F   F   F
  0.3316535047490632  0.6977885223285867  0.3303950447372728   T   T   T
  0.5592241753960252  0.7849898966497477  0.2196245268965811   T   T   T
  0.4444407923909637  0.8888906285100902  0.1083401201072576   F   F   F
  0.6666703610777347  0.6666702557471211  0.0000000000000000   F   F   F
  0.6993469796303842  0.6976527658067369  0.3303684953082282   T   T   T
  0.8887804860453130  0.7809093688871016  0.2184041531411509   T   T   T
  0.7777805474604733  0.8888906285100902  0.1083401201072576   F   F   F
  0.5081431859017087  0.6828618316805262  0.3932451931225174   T   T   T
  0.3462478178124044  0.3602038237156577  0.4294478145722920   T   T   T
  0.2800209584067019  0.2283424697581111  0.4079328772586592   T   T   T
  0.4513225753917283  0.3656053668640311  0.4566848288306318   T   T   T
  0.2472102114162453  0.3662593478010407  0.4567298278629153   T   T   T
  0.4194284201252856  0.5058731823671394  0.4060919668480878   T   T   T
 
  0.00000000E+00  0.00000000E+00  0.00000000E+00
  0.00000000E+00  0.00000000E+00  0.00000000E+00
  0.00000000E+00  0.00000000E+00  0.00000000E+00
  0.00000000E+00  0.00000000E+00  0.00000000E+00
  0.00000000E+00  0.00000000E+00  0.00000000E+00
  0.00000000E+00  0.00000000E+00  0.00000000E+00
  0.00000000E+00  0.00000000E+00  0.00000000E+00
  0.00000000E+00  0.00000000E+00  0.00000000E+00
  0.00000000E+00  0.00000000E+00  0.00000000E+00
  0.00000000E+00  0.00000000E+00  0.00000000E+00
  0.00000000E+00  0.00000000E+00  0.00000000E+00
  0.00000000E+00  0.00000000E+00  0.00000000E+00
  0.00000000E+00  0.00000000E+00  0.00000000E+00
  0.00000000E+00  0.00000000E+00  0.00000000E+00
  0.00000000E+00  0.00000000E+00  0.00000000E+00
  0.00000000E+00  0.00000000E+00  0.00000000E+00
  0.00000000E+00  0.00000000E+00  0.00000000E+00
  0.00000000E+00  0.00000000E+00  0.00000000E+00
  0.00000000E+00  0.00000000E+00  0.00000000E+00
  0.00000000E+00  0.00000000E+00  0.00000000E+00
  0.00000000E+00  0.00000000E+00  0.00000000E+00
  0.00000000E+00  0.00000000E+00  0.00000000E+00
  0.00000000E+00  0.00000000E+00  0.00000000E+00
  0.00000000E+00  0.00000000E+00  0.00000000E+00
  0.00000000E+00  0.00000000E+00  0.00000000E+00
  0.00000000E+00  0.00000000E+00  0.00000000E+00
  0.00000000E+00  0.00000000E+00  0.00000000E+00
  0.00000000E+00  0.00000000E+00  0.00000000E+00
  0.00000000E+00  0.00000000E+00  0.00000000E+00
  0.00000000E+00  0.00000000E+00  0.00000000E+00
  0.00000000E+00  0.00000000E+00  0.00000000E+00
  0.00000000E+00  0.00000000E+00  0.00000000E+00
  0.00000000E+00  0.00000000E+00  0.00000000E+00
  0.00000000E+00  0.00000000E+00  0.00000000E+00
  0.00000000E+00  0.00000000E+00  0.00000000E+00
  0.00000000E+00  0.00000000E+00  0.00000000E+00
  0.00000000E+00  0.00000000E+00  0.00000000E+00
  0.00000000E+00  0.00000000E+00  0.00000000E+00
  0.00000000E+00  0.00000000E+00  0.00000000E+00
  0.00000000E+00  0.00000000E+00  0.00000000E+00
  0.00000000E+00  0.00000000E+00  0.00000000E+00
  0.00000000E+00  0.00000000E+00  0.00000000E+00
