Au Pd Au C  H  O                        
   1.00000000000000     
     8.8458995818999995    0.0000000000000000    0.0000000000000000
    -4.4229497909999997    7.6607737573000003    0.0000000000000000
     0.0000000000000000    0.0000000000000000   22.2227001189999989
   Au   Pd   Au   C    H    O 
    17     1    18     1     4     1
Selective dynamics
Direct
  0.0000000000000000  0.0000000000000000  0.0000000000000000   F   F   F
  0.0025678768503768  0.0023218142369174  0.3291533193740392   T   T   T
  0.2233358887377233  0.1134696775037389  0.2183430282997139   T   T   T
  0.1111100036335770  0.2222200072646459  0.1083399993748557   F   F   F
  0.3333300181287697  0.0000000000000000  0.0000000000000000   F   F   F
  0.3346683005517974  0.0035200369642165  0.3279235891763926   T   T   T
  0.5556932627376037  0.1109570149561407  0.2171549474225521   T   T   T
  0.4444399948572268  0.2222200072646459  0.1083399993748557   F   F   F
  0.6666700087876549  0.0000000000000000  0.0000000000000000   F   F   F
  0.6658229907086927  0.0008598217912119  0.3303903950491013   T   T   T
  0.8902396465314784  0.1135420467022566  0.2180001238358314   T   T   T
  0.7777800124212320  0.2222200072646459  0.1083399993748557   F   F   F
  0.9999999925351943  0.3333300031953925  0.0000000000000000   F   F   F
 -0.0099056645950274  0.3131514609718596  0.3297748879942258   T   T   T
  0.2230984275999606  0.4435696768754231  0.2218351618631484   T   T   T
  0.1111100262929554  0.5555600161073073  0.1083399993748557   F   F   F
  0.3333300106639641  0.3333300031953925  0.0000000000000000   F   F   F
  0.3352885082039224  0.3314249791915019  0.3339621270603426   T   T   T
  0.5531977828810881  0.4433142902069565  0.2183309518727340   T   T   T
  0.4444400175166052  0.5555600161073073  0.1083399993748557   F   F   F
  0.6666700147754128  0.3333300031953925  0.0000000000000000   F   F   F
  0.6632053537072624  0.3319365072579259  0.3279200770270984   T   T   T
  0.8903948169731323  0.4451143402317158  0.2196677108926906   T   T   T
  0.7777800080624431  0.5555600161073073  0.1083399993748557   F   F   F
  0.0000000093958050  0.6666700275717332  0.0000000000000000   F   F   F
  0.9888640122622553  0.6777533512275913  0.3305359670176337   T   T   T
  0.2215215858223129  0.7762262395161140  0.2196614365679642   T   T   T
  0.1111100207962252  0.8888900503700583  0.1083399993748557   F   F   F
  0.3333300276376221  0.6666700275717332  0.0000000000000000   F   F   F
  0.3536103409674196  0.6767207189443285  0.3297375358158110   T   T   T
  0.5531750528600677  0.7764451716600032  0.2179911788043178   T   T   T
  0.4444400120198750  0.8888900503700583  0.1083399993748557   F   F   F
  0.6666700181834599  0.6666700275717332  0.0000000000000000   F   F   F
  0.6643900921269513  0.6641008463217477  0.3291750454175338   T   T   T
  0.8902718421207406  0.7763833518585904  0.2181755318535156   T   T   T
  0.7777800026787602  0.8888900503700583  0.1083399993748557   F   F   F
  0.3361345303934364  0.3304032570543882  0.4280557475987739   T   T   T
  0.4025649679438878  0.4672257181279176  0.4414085561484095   T   T   T
  0.1993181669367871  0.2614786461590961  0.4414391337033743   T   T   T
  0.4049585914158116  0.2640345964073161  0.4431618577313106   T   T   T
  0.1060709625231851  0.5602731138142308  0.4391512950632883   T   T   T
  0.1092158578171721  0.5574580861966003  0.3955420877105472   T   T   T
 
  0.00000000E+00  0.00000000E+00  0.00000000E+00
  0.00000000E+00  0.00000000E+00  0.00000000E+00
  0.00000000E+00  0.00000000E+00  0.00000000E+00
  0.00000000E+00  0.00000000E+00  0.00000000E+00
  0.00000000E+00  0.00000000E+00  0.00000000E+00
  0.00000000E+00  0.00000000E+00  0.00000000E+00
  0.00000000E+00  0.00000000E+00  0.00000000E+00
  0.00000000E+00  0.00000000E+00  0.00000000E+00
  0.00000000E+00  0.00000000E+00  0.00000000E+00
  0.00000000E+00  0.00000000E+00  0.00000000E+00
  0.00000000E+00  0.00000000E+00  0.00000000E+00
  0.00000000E+00  0.00000000E+00  0.00000000E+00
  0.00000000E+00  0.00000000E+00  0.00000000E+00
  0.00000000E+00  0.00000000E+00  0.00000000E+00
  0.00000000E+00  0.00000000E+00  0.00000000E+00
  0.00000000E+00  0.00000000E+00  0.00000000E+00
  0.00000000E+00  0.00000000E+00  0.00000000E+00
  0.00000000E+00  0.00000000E+00  0.00000000E+00
  0.00000000E+00  0.00000000E+00  0.00000000E+00
  0.00000000E+00  0.00000000E+00  0.00000000E+00
  0.00000000E+00  0.00000000E+00  0.00000000E+00
  0.00000000E+00  0.00000000E+00  0.00000000E+00
  0.00000000E+00  0.00000000E+00  0.00000000E+00
  0.00000000E+00  0.00000000E+00  0.00000000E+00
  0.00000000E+00  0.00000000E+00  0.00000000E+00
  0.00000000E+00  0.00000000E+00  0.00000000E+00
  0.00000000E+00  0.00000000E+00  0.00000000E+00
  0.00000000E+00  0.00000000E+00  0.00000000E+00
  0.00000000E+00  0.00000000E+00  0.00000000E+00
  0.00000000E+00  0.00000000E+00  0.00000000E+00
  0.00000000E+00  0.00000000E+00  0.00000000E+00
  0.00000000E+00  0.00000000E+00  0.00000000E+00
  0.00000000E+00  0.00000000E+00  0.00000000E+00
  0.00000000E+00  0.00000000E+00  0.00000000E+00
  0.00000000E+00  0.00000000E+00  0.00000000E+00
  0.00000000E+00  0.00000000E+00  0.00000000E+00
  0.00000000E+00  0.00000000E+00  0.00000000E+00
  0.00000000E+00  0.00000000E+00  0.00000000E+00
  0.00000000E+00  0.00000000E+00  0.00000000E+00
  0.00000000E+00  0.00000000E+00  0.00000000E+00
  0.00000000E+00  0.00000000E+00  0.00000000E+00
  0.00000000E+00  0.00000000E+00  0.00000000E+00
