Ir  C  H  O                             
   1.00000000000000     
     8.2306995391999997    0.0000000000000000    0.0000000000000000
     0.0000000000000000    8.2306995391999997    0.0000000000000000
     0.0000000000000000    0.0000000000000000   20.8199996947999999
   Ir   C    H    O 
    36     1     4     1
Selective dynamics
Direct
  0.0000000000000000  0.0000000000000000  0.0931800007895518   F   F   F
 -0.0056883240518054 -0.0016870535798763  0.2757534770418612   T   T   T
  0.1666699946300483  0.1666699946300483  0.0000000000000000   F   F   F
  0.1666482208946259  0.1666462024330520  0.1873208083742490   T   T   T
  0.3333300054185528  0.0000000000000000  0.0931800007895518   F   F   F
  0.3335288729731172  0.9912489674533489  0.2822579732500883   T   T   T
  0.5000000000486011  0.1666699946300483  0.0000000000000000   F   F   F
  0.5002483980648094  0.1666731753669505  0.1873076069591753   T   T   T
  0.6666700244452528  0.0000000000000000  0.0931800007895518   F   F   F
  0.6726819292927809 -0.0016732486501000  0.2757281050490485   T   T   T
  0.8333299755790478  0.1666699946300483  0.0000000000000000   F   F   F
  0.8334981707176004  0.1666115081620965  0.1863047252630428   T   T   T
  0.0000000000000000  0.3333300054185528  0.0931800007895518   F   F   F
  0.9943190800272378  0.3350045600366549  0.2757277808060417   T   T   T
  0.1666699946300483  0.5000000000486011  0.0000000000000000   F   F   F
  0.1699563867173363  0.4964095400555109  0.1884117280514555   T   T   T
  0.3333300054185528  0.3333300054185528  0.0931800007895518   F   F   F
  0.3335675053770472  0.3419791131847106  0.2821814314391604   T   T   T
  0.5000000000486011  0.5000000000486011  0.0000000000000000   F   F   F
  0.4969537705517230  0.4964028231153078  0.1883924243751172   T   T   T
  0.6666700244452528  0.3333300054185528  0.0931800007895518   F   F   F
  0.6726917110473593  0.3350087011737775  0.2757299652291162   T   T   T
  0.8333299755790478  0.5000000000486011  0.0000000000000000   F   F   F
  0.8334521747588813  0.5016543381634436  0.1851268635715008   T   T   T
  0.0000000000000000  0.6666700244452528  0.0931800007895518   F   F   F
 -0.0025075195355331  0.6666504677406743  0.2752482849132240   T   T   T
  0.1666699946300483  0.8333299755790478  0.0000000000000000   F   F   F
  0.1699396256020575  0.8369226692251353  0.1884229364450795   T   T   T
  0.3333300054185528  0.6666700244452528  0.0931800007895518   F   F   F
  0.3335147844222281  0.6667191817911091  0.2761900460483321   T   T   T
  0.5000000000486011  0.8333299755790478  0.0000000000000000   F   F   F
  0.4969118412158884  0.8369803148621136  0.1884019029950018   T   T   T
  0.6666700244452528  0.6666700244452528  0.0931800007895518   F   F   F
  0.6694510830242929  0.6666755154297754  0.2752288414865101   T   T   T
  0.8333299755790478  0.8333299755790478  0.0000000000000000   F   F   F
  0.8334777530565201  0.8317061639765926  0.1851315502371624   T   T   T
  0.3361369493686668  0.6519897158578166  0.4589039315217655   T   T   T
  0.4448016528714051  0.6567314695117901  0.4888230840683872   T   T   T
  0.2279835859932103  0.6565155169901156  0.4890975629875214   T   T   T
  0.3360529987115727  0.5392960487660292  0.4313000187802734   T   T   T
  0.3358027957804635  0.7558336982514018  0.4262501903899369   T   T   T
  0.3335362236496140  0.1666566543543911  0.3449064564865081   T   T   T
 
  0.00000000E+00  0.00000000E+00  0.00000000E+00
  0.00000000E+00  0.00000000E+00  0.00000000E+00
  0.00000000E+00  0.00000000E+00  0.00000000E+00
  0.00000000E+00  0.00000000E+00  0.00000000E+00
  0.00000000E+00  0.00000000E+00  0.00000000E+00
  0.00000000E+00  0.00000000E+00  0.00000000E+00
  0.00000000E+00  0.00000000E+00  0.00000000E+00
  0.00000000E+00  0.00000000E+00  0.00000000E+00
  0.00000000E+00  0.00000000E+00  0.00000000E+00
  0.00000000E+00  0.00000000E+00  0.00000000E+00
  0.00000000E+00  0.00000000E+00  0.00000000E+00
  0.00000000E+00  0.00000000E+00  0.00000000E+00
  0.00000000E+00  0.00000000E+00  0.00000000E+00
  0.00000000E+00  0.00000000E+00  0.00000000E+00
  0.00000000E+00  0.00000000E+00  0.00000000E+00
  0.00000000E+00  0.00000000E+00  0.00000000E+00
  0.00000000E+00  0.00000000E+00  0.00000000E+00
  0.00000000E+00  0.00000000E+00  0.00000000E+00
  0.00000000E+00  0.00000000E+00  0.00000000E+00
  0.00000000E+00  0.00000000E+00  0.00000000E+00
  0.00000000E+00  0.00000000E+00  0.00000000E+00
  0.00000000E+00  0.00000000E+00  0.00000000E+00
  0.00000000E+00  0.00000000E+00  0.00000000E+00
  0.00000000E+00  0.00000000E+00  0.00000000E+00
  0.00000000E+00  0.00000000E+00  0.00000000E+00
  0.00000000E+00  0.00000000E+00  0.00000000E+00
  0.00000000E+00  0.00000000E+00  0.00000000E+00
  0.00000000E+00  0.00000000E+00  0.00000000E+00
  0.00000000E+00  0.00000000E+00  0.00000000E+00
  0.00000000E+00  0.00000000E+00  0.00000000E+00
  0.00000000E+00  0.00000000E+00  0.00000000E+00
  0.00000000E+00  0.00000000E+00  0.00000000E+00
  0.00000000E+00  0.00000000E+00  0.00000000E+00
  0.00000000E+00  0.00000000E+00  0.00000000E+00
  0.00000000E+00  0.00000000E+00  0.00000000E+00
  0.00000000E+00  0.00000000E+00  0.00000000E+00
  0.00000000E+00  0.00000000E+00  0.00000000E+00
  0.00000000E+00  0.00000000E+00  0.00000000E+00
  0.00000000E+00  0.00000000E+00  0.00000000E+00
  0.00000000E+00  0.00000000E+00  0.00000000E+00
  0.00000000E+00  0.00000000E+00  0.00000000E+00
  0.00000000E+00  0.00000000E+00  0.00000000E+00
