Ir  O                                   
   1.00000000000000     
     8.2306995391999997    0.0000000000000000    0.0000000000000000
     0.0000000000000000    8.2306995391999997    0.0000000000000000
     0.0000000000000000    0.0000000000000000   20.8199996947999999
   Ir   O 
    36     1
Selective dynamics
Direct
  0.0000000000000000  0.0000000000000000  0.0931800007895518   F   F   F
 -0.0023587655210854 -0.0000002360822739  0.2753553387508774   T   T   T
  0.1666699946300483  0.1666699946300483  0.0000000000000000   F   F   F
  0.1697533083866586  0.1702059203260032  0.1884472688123809   T   T   T
  0.3333300054185528  0.0000000000000000  0.0931800007895518   F   F   F
  0.3333611989349333 -0.0000005888499719  0.2763567532273421   T   T   T
  0.5000000000486011  0.1666699946300483  0.0000000000000000   F   F   F
  0.4969349263500143  0.1701693796737248  0.1884508174424555   T   T   T
  0.6666700244452528  0.0000000000000000  0.0931800007895518   F   F   F
  0.6690849215174588  0.0000000748493976  0.2753569736996427   T   T   T
  0.8333299755790478  0.1666699946300483  0.0000000000000000   F   F   F
  0.8333903262836524  0.1648300527344607  0.1852448347301699   T   T   T
  0.0000000000000000  0.3333300054185528  0.0931800007895518   F   F   F
  0.9939640837496877  0.3319390504895010  0.2757806978239582   T   T   T
  0.1666699946300483  0.5000000000486011  0.0000000000000000   F   F   F
  0.1669424374479014  0.4999996539567239  0.1874584259708675   T   T   T
  0.3333300054185528  0.3333300054185528  0.0931800007895518   F   F   F
  0.3333268954311807  0.3240440466951420  0.2823423342313696   T   T   T
  0.5000000000486011  0.5000000000486011  0.0000000000000000   F   F   F
  0.4997241515948974  0.4999995943996834  0.1874679091076405   T   T   T
  0.6666700244452528  0.3333300054185528  0.0931800007895518   F   F   F
  0.6726447919750668  0.3319662956479811  0.2757862098579544   T   T   T
  0.8333299755790478  0.5000000000486011  0.0000000000000000   F   F   F
  0.8333357077342605  0.4999998891238911  0.1862031789322526   T   T   T
  0.0000000000000000  0.6666700244452528  0.0931800007895518   F   F   F
  0.9939640293839507  0.6680600960406438  0.2757809188904848   T   T   T
  0.1666699946300483  0.8333299755790478  0.0000000000000000   F   F   F
  0.1697528862784485  0.8297932792464610  0.1884473703705126   T   T   T
  0.3333300054185528  0.6666700244452528  0.0931800007895518   F   F   F
  0.3333267247589125  0.6759508810764653  0.2823426493589787   T   T   T
  0.5000000000486011  0.8333299755790478  0.0000000000000000   F   F   F
  0.4969352430830174  0.8298297718525003  0.1884507968219551   T   T   T
  0.6666700244452528  0.6666700244452528  0.0931800007895518   F   F   F
  0.6726445903384536  0.6680328038152155  0.2757865898130026   T   T   T
  0.8333299755790478  0.8333299755790478  0.0000000000000000   F   F   F
  0.8333901970302130  0.8351695750509662  0.1852449136821055   T   T   T
  0.3327266602526781  0.4999977536814502  0.3445997734155793   T   T   T
 
  0.00000000E+00  0.00000000E+00  0.00000000E+00
  0.00000000E+00  0.00000000E+00  0.00000000E+00
  0.00000000E+00  0.00000000E+00  0.00000000E+00
  0.00000000E+00  0.00000000E+00  0.00000000E+00
  0.00000000E+00  0.00000000E+00  0.00000000E+00
  0.00000000E+00  0.00000000E+00  0.00000000E+00
  0.00000000E+00  0.00000000E+00  0.00000000E+00
  0.00000000E+00  0.00000000E+00  0.00000000E+00
  0.00000000E+00  0.00000000E+00  0.00000000E+00
  0.00000000E+00  0.00000000E+00  0.00000000E+00
  0.00000000E+00  0.00000000E+00  0.00000000E+00
  0.00000000E+00  0.00000000E+00  0.00000000E+00
  0.00000000E+00  0.00000000E+00  0.00000000E+00
  0.00000000E+00  0.00000000E+00  0.00000000E+00
  0.00000000E+00  0.00000000E+00  0.00000000E+00
  0.00000000E+00  0.00000000E+00  0.00000000E+00
  0.00000000E+00  0.00000000E+00  0.00000000E+00
  0.00000000E+00  0.00000000E+00  0.00000000E+00
  0.00000000E+00  0.00000000E+00  0.00000000E+00
  0.00000000E+00  0.00000000E+00  0.00000000E+00
  0.00000000E+00  0.00000000E+00  0.00000000E+00
  0.00000000E+00  0.00000000E+00  0.00000000E+00
  0.00000000E+00  0.00000000E+00  0.00000000E+00
  0.00000000E+00  0.00000000E+00  0.00000000E+00
  0.00000000E+00  0.00000000E+00  0.00000000E+00
  0.00000000E+00  0.00000000E+00  0.00000000E+00
  0.00000000E+00  0.00000000E+00  0.00000000E+00
  0.00000000E+00  0.00000000E+00  0.00000000E+00
  0.00000000E+00  0.00000000E+00  0.00000000E+00
  0.00000000E+00  0.00000000E+00  0.00000000E+00
  0.00000000E+00  0.00000000E+00  0.00000000E+00
  0.00000000E+00  0.00000000E+00  0.00000000E+00
  0.00000000E+00  0.00000000E+00  0.00000000E+00
  0.00000000E+00  0.00000000E+00  0.00000000E+00
  0.00000000E+00  0.00000000E+00  0.00000000E+00
  0.00000000E+00  0.00000000E+00  0.00000000E+00
  0.00000000E+00  0.00000000E+00  0.00000000E+00
