Ir                                      
   1.00000000000000     
     8.2306995391999997    0.0000000000000000    0.0000000000000000
     0.0000000000000000    8.2306995391999997    0.0000000000000000
     0.0000000000000000    0.0000000000000000   20.8199996947999999
   Ir
    36
Selective dynamics
Direct
  0.0000000000000000  0.0000000000000000  0.0931800007895518   F   F   F
  0.0000030677384010  0.0000212081770136  0.2764411509481393   T   T   T
  0.1666699946300483  0.1666699946300483  0.0000000000000000   F   F   F
  0.1665794164392139  0.1665696898187767  0.1876335294882291   T   T   T
  0.3333300054185528  0.0000000000000000  0.0931800007895518   F   F   F
  0.3332635934184401  0.0000189875465955  0.2764746623115847   T   T   T
  0.5000000000486011  0.1666699946300483  0.0000000000000000   F   F   F
  0.4999960163162392  0.1666648832428648  0.1875961087173816   T   T   T
  0.6666700244452528  0.0000000000000000  0.0931800007895518   F   F   F
  0.6667340515403536  0.0000026433730701  0.2764692042215313   T   T   T
  0.8333299755790478  0.1666699946300483  0.0000000000000000   F   F   F
  0.8334176828471630  0.1665754358771711  0.1876324638478024   T   T   T
  0.0000000000000000  0.3333300054185528  0.0931800007895518   F   F   F
 -0.0000030979992686  0.3332461668413864  0.2764708509937229   T   T   T
  0.1666699946300483  0.5000000000486011  0.0000000000000000   F   F   F
  0.1666643259648799  0.4999667973548303  0.1876008481737828   T   T   T
  0.3333300054185528  0.3333300054185528  0.0931800007895518   F   F   F
  0.3333742324484856  0.3333499607858823  0.2764565458468865   T   T   T
  0.5000000000486011  0.5000000000486011  0.0000000000000000   F   F   F
  0.5000260339008463  0.4999890719155018  0.1875411313703051   T   T   T
  0.6666700244452528  0.3333300054185528  0.0931800007895518   F   F   F
  0.6666290404934209  0.3333721689751200  0.2764498523717969   T   T   T
  0.8333299755790478  0.5000000000486011  0.0000000000000000   F   F   F
  0.8333105213315032  0.4999833969503824  0.1876092661620387   T   T   T
  0.0000000000000000  0.6666700244452528  0.0931800007895518   F   F   F
 -0.0000191803178054  0.6667330070005747  0.2764832778723252   T   T   T
  0.1666699946300483  0.8333299755790478  0.0000000000000000   F   F   F
  0.1665841975637562  0.8334644471846057  0.1876313396609784   T   T   T
  0.3333300054185528  0.6666700244452528  0.0931800007895518   F   F   F
  0.3333897229921062  0.6666300035934333  0.2764697760739824   T   T   T
  0.5000000000486011  0.8333299755790478  0.0000000000000000   F   F   F
  0.5000123881179053  0.8333469710169591  0.1875954923447481   T   T   T
  0.6666700244452528  0.6666700244452528  0.0931800007895518   F   F   F
  0.6666299943774758  0.6666240138737907  0.2764613126306714   T   T   T
  0.8333299755790478  0.8333299755790478  0.0000000000000000   F   F   F
  0.8334026921942331  0.8334479351754235  0.1876413078427210   T   T   T
 
  0.00000000E+00  0.00000000E+00  0.00000000E+00
  0.00000000E+00  0.00000000E+00  0.00000000E+00
  0.00000000E+00  0.00000000E+00  0.00000000E+00
  0.00000000E+00  0.00000000E+00  0.00000000E+00
  0.00000000E+00  0.00000000E+00  0.00000000E+00
  0.00000000E+00  0.00000000E+00  0.00000000E+00
  0.00000000E+00  0.00000000E+00  0.00000000E+00
  0.00000000E+00  0.00000000E+00  0.00000000E+00
  0.00000000E+00  0.00000000E+00  0.00000000E+00
  0.00000000E+00  0.00000000E+00  0.00000000E+00
  0.00000000E+00  0.00000000E+00  0.00000000E+00
  0.00000000E+00  0.00000000E+00  0.00000000E+00
  0.00000000E+00  0.00000000E+00  0.00000000E+00
  0.00000000E+00  0.00000000E+00  0.00000000E+00
  0.00000000E+00  0.00000000E+00  0.00000000E+00
  0.00000000E+00  0.00000000E+00  0.00000000E+00
  0.00000000E+00  0.00000000E+00  0.00000000E+00
  0.00000000E+00  0.00000000E+00  0.00000000E+00
  0.00000000E+00  0.00000000E+00  0.00000000E+00
  0.00000000E+00  0.00000000E+00  0.00000000E+00
  0.00000000E+00  0.00000000E+00  0.00000000E+00
  0.00000000E+00  0.00000000E+00  0.00000000E+00
  0.00000000E+00  0.00000000E+00  0.00000000E+00
  0.00000000E+00  0.00000000E+00  0.00000000E+00
  0.00000000E+00  0.00000000E+00  0.00000000E+00
  0.00000000E+00  0.00000000E+00  0.00000000E+00
  0.00000000E+00  0.00000000E+00  0.00000000E+00
  0.00000000E+00  0.00000000E+00  0.00000000E+00
  0.00000000E+00  0.00000000E+00  0.00000000E+00
  0.00000000E+00  0.00000000E+00  0.00000000E+00
  0.00000000E+00  0.00000000E+00  0.00000000E+00
  0.00000000E+00  0.00000000E+00  0.00000000E+00
  0.00000000E+00  0.00000000E+00  0.00000000E+00
  0.00000000E+00  0.00000000E+00  0.00000000E+00
  0.00000000E+00  0.00000000E+00  0.00000000E+00
  0.00000000E+00  0.00000000E+00  0.00000000E+00
