Ir   C    H    O                        
   1.00000000000000     
     8.2306995391999997    0.0000000000000000    0.0000000000000000
     0.0000000000000000    8.2306995391999997    0.0000000000000000
     0.0000000000000000    0.0000000000000000   20.8199996947999999
   Ir   C    H    O 
    36     1     4     1
Selective dynamics
Direct
  0.0000000000000000  0.0000000000000000  0.0931800007895518   F   F   F
  0.9973909818062729  0.9986043756130196  0.2755440415140110   T   T   T
  0.1666699946300483  0.1666699946300483  0.0000000000000000   F   F   F
  0.1699732931259699  0.1685343925432129  0.1883031745562239   T   T   T
  0.3333300054185528  0.0000000000000000  0.0931800007895518   F   F   F
  0.3333761819809556  0.9959988575236777  0.2755669519459599   T   T   T
  0.5000000000486011  0.1666699946300483  0.0000000000000000   F   F   F
  0.4967026998046064  0.1685736262280601  0.1883022711642186   T   T   T
  0.6666700244452528  0.0000000000000000  0.0931800007895518   F   F   F
  0.6692932034613109  0.9986007947961202  0.2755505762127505   T   T   T
  0.8333299755790478  0.1666699946300483  0.0000000000000000   F   F   F
  0.8333635096652636  0.1666895852090519  0.1856741049560864   T   T   T
  0.0000000000000000  0.3333300054185528  0.0931800007895518   F   F   F
  0.9938130983388922  0.3319337142230823  0.2755869600472002   T   T   T
  0.1666699946300483  0.5000000000486011  0.0000000000000000   F   F   F
  0.1702791709319327  0.4992146203468814  0.1889949529097128   T   T   T
  0.3333300054185528  0.3333300054185528  0.0931800007895518   F   F   F
  0.3333321072065484  0.3280346305886383  0.2813586429216695   T   T   T
  0.5000000000486011  0.5000000000486011  0.0000000000000000   F   F   F
  0.4963790172111527  0.4992418348879538  0.1889778894720641   T   T   T
  0.6666700244452528  0.3333300054185528  0.0931800007895518   F   F   F
  0.6728248614117739  0.3319412052217891  0.2755840248467472   T   T   T
  0.8333299755790478  0.5000000000486011  0.0000000000000000   F   F   F
  0.8333601177365595  0.5004228880589751  0.1859305741526618   T   T   T
  0.0000000000000000  0.6666700244452528  0.0931800007895518   F   F   F
  0.9959963928814554  0.6678978358060073  0.2757551285421020   T   T   T
  0.1666699946300483  0.8333299755790478  0.0000000000000000   F   F   F
  0.1674094671827020  0.8308775916062765  0.1874151449116916   T   T   T
  0.3333300054185528  0.6666700244452528  0.0931800007895518   F   F   F
  0.3334342414390444  0.6742177207492063  0.2819678143467284   T   T   T
  0.5000000000486011  0.8333299755790478  0.0000000000000000   F   F   F
  0.4993438997564616  0.8309793266926661  0.1873767722826159   T   T   T
  0.6666700244452528  0.6666700244452528  0.0931800007895518   F   F   F
  0.6707333745691429  0.6678837168606985  0.2757089652616866   T   T   T
  0.8333299755790478  0.8333299755790478  0.0000000000000000   F   F   F
  0.8333771196734922  0.8325038521236050  0.1857339127764327   T   T   T
  0.3355628382250881  0.6685644278417935  0.3961378630829258   T   T   T
  0.4472289006246082  0.6468178874533800  0.4232193730785604   T   T   T
  0.2267474190576653  0.6448459461241676  0.4247831708048277   T   T   T
  0.3337526440542934  0.5206612776266871  0.3714758216866000   T   T   T
  0.3334049617927240  0.7987862486749183  0.3847252241900780   T   T   T
  0.3327333760794410  0.3600281974749240  0.3693258527434045   T   T   T
 
  0.00000000E+00  0.00000000E+00  0.00000000E+00
  0.00000000E+00  0.00000000E+00  0.00000000E+00
  0.00000000E+00  0.00000000E+00  0.00000000E+00
  0.00000000E+00  0.00000000E+00  0.00000000E+00
  0.00000000E+00  0.00000000E+00  0.00000000E+00
  0.00000000E+00  0.00000000E+00  0.00000000E+00
  0.00000000E+00  0.00000000E+00  0.00000000E+00
  0.00000000E+00  0.00000000E+00  0.00000000E+00
  0.00000000E+00  0.00000000E+00  0.00000000E+00
  0.00000000E+00  0.00000000E+00  0.00000000E+00
  0.00000000E+00  0.00000000E+00  0.00000000E+00
  0.00000000E+00  0.00000000E+00  0.00000000E+00
  0.00000000E+00  0.00000000E+00  0.00000000E+00
  0.00000000E+00  0.00000000E+00  0.00000000E+00
  0.00000000E+00  0.00000000E+00  0.00000000E+00
  0.00000000E+00  0.00000000E+00  0.00000000E+00
  0.00000000E+00  0.00000000E+00  0.00000000E+00
  0.00000000E+00  0.00000000E+00  0.00000000E+00
  0.00000000E+00  0.00000000E+00  0.00000000E+00
  0.00000000E+00  0.00000000E+00  0.00000000E+00
  0.00000000E+00  0.00000000E+00  0.00000000E+00
  0.00000000E+00  0.00000000E+00  0.00000000E+00
  0.00000000E+00  0.00000000E+00  0.00000000E+00
  0.00000000E+00  0.00000000E+00  0.00000000E+00
  0.00000000E+00  0.00000000E+00  0.00000000E+00
  0.00000000E+00  0.00000000E+00  0.00000000E+00
  0.00000000E+00  0.00000000E+00  0.00000000E+00
  0.00000000E+00  0.00000000E+00  0.00000000E+00
  0.00000000E+00  0.00000000E+00  0.00000000E+00
  0.00000000E+00  0.00000000E+00  0.00000000E+00
  0.00000000E+00  0.00000000E+00  0.00000000E+00
  0.00000000E+00  0.00000000E+00  0.00000000E+00
  0.00000000E+00  0.00000000E+00  0.00000000E+00
  0.00000000E+00  0.00000000E+00  0.00000000E+00
  0.00000000E+00  0.00000000E+00  0.00000000E+00
  0.00000000E+00  0.00000000E+00  0.00000000E+00
  0.00000000E+00  0.00000000E+00  0.00000000E+00
  0.00000000E+00  0.00000000E+00  0.00000000E+00
  0.00000000E+00  0.00000000E+00  0.00000000E+00
  0.00000000E+00  0.00000000E+00  0.00000000E+00
  0.00000000E+00  0.00000000E+00  0.00000000E+00
  0.00000000E+00  0.00000000E+00  0.00000000E+00
