Ag Ti Ag O                              
   1.00000000000000     
    12.4799995421999999    0.0000000000000000    0.0000000000000000
     0.0000000000000000    8.8247003554999992    0.0000000000000000
     0.0000000000000000    0.0000000000000000   19.4123001098999985
   Ag   Ti   Ag   O 
    16     1    19     1
Selective dynamics
Direct
  0.0006577323637831  0.0003245194691870  0.2232539291977644   T   T   T
  0.1682403818533995  0.1681194072877904  0.1552499867221456   T   T   T
  0.1666699945754431  0.1666699946455736  0.0000000000000000   F   F   F
  0.0000000000000000  0.0000000000000000  0.0757699981286564   F   F   F
  0.3323500359722023  0.0010891962896268  0.2239289980352088   T   T   T
  0.4969205908400188  0.1683302059539134  0.1566358828445471   T   T   T
  0.4999999999919851  0.1666699946455736  0.0000000000000000   F   F   F
  0.3333300054165420  0.0000000000000000  0.0757699981286564   F   F   F
  0.6648152173741576  0.0008615647850898  0.2234315199395744   T   T   T
  0.8329304888812520  0.1671648105146279  0.1550518716097805   T   T   T
  0.8333299756008401  0.1666699946455736  0.0000000000000000   F   F   F
  0.6666700243751222  0.0000000000000000  0.0757699981286564   F   F   F
  0.0014158802275001  0.3333279024803430  0.2233777011134447   T   T   T
  0.1682346452209698  0.4985197067615846  0.1552640282572353   T   T   T
  0.1666699945754431  0.5000000000283293  0.0000000000000000   F   F   F
  0.0000000000000000  0.3333300053827557  0.0757699981286564   F   F   F
  0.3294449698645261  0.3333567615217121  0.2319787764779027   T   T   T
  0.4968923875032075  0.4983538040218162  0.1566341764142700   T   T   T
  0.4999999999919851  0.5000000000283293  0.0000000000000000   F   F   F
  0.3333300054165420  0.3333300053827557  0.0757699981286564   F   F   F
  0.6644865048661003  0.3333064683391376  0.2238188015924935   T   T   T
  0.8329651096463788  0.4995621189598717  0.1550584244192323   T   T   T
  0.8333299756008401  0.5000000000283293  0.0000000000000000   F   F   F
  0.6666700243751222  0.3333300053827557  0.0757699981286564   F   F   F
  0.0006932256374342  0.6663449177415123  0.2232384862204068   T   T   T
  0.1670401797735682  0.8333116519239165  0.1547841715692519   T   T   T
  0.1666699945754431  0.8333299756083719  0.0000000000000000   F   F   F
  0.0000000000000000  0.6666700243632988  0.0757699981286564   F   F   F
  0.3323503277543624  0.6655581304183066  0.2239660351983533   T   T   T
  0.4990946805544030  0.8333437488769285  0.1546253185836855   T   T   T
  0.4999999999919851  0.8333299756083719  0.0000000000000000   F   F   F
  0.3333300054165420  0.6666700243632988  0.0757699981286564   F   F   F
  0.6647962606225990  0.6658175400139376  0.2234305190007485   T   T   T
  0.8328522788418949  0.8333300952408147  0.1543965482359023   T   T   T
  0.8333299756008401  0.8333299756083719  0.0000000000000000   F   F   F
  0.6666700243751222  0.6666700243632988  0.0757699981286564   F   F   F
  0.3193018901325518  0.3333435809100786  0.3160871560239426   T   T   T
 
  0.00000000E+00  0.00000000E+00  0.00000000E+00
  0.00000000E+00  0.00000000E+00  0.00000000E+00
  0.00000000E+00  0.00000000E+00  0.00000000E+00
  0.00000000E+00  0.00000000E+00  0.00000000E+00
  0.00000000E+00  0.00000000E+00  0.00000000E+00
  0.00000000E+00  0.00000000E+00  0.00000000E+00
  0.00000000E+00  0.00000000E+00  0.00000000E+00
  0.00000000E+00  0.00000000E+00  0.00000000E+00
  0.00000000E+00  0.00000000E+00  0.00000000E+00
  0.00000000E+00  0.00000000E+00  0.00000000E+00
  0.00000000E+00  0.00000000E+00  0.00000000E+00
  0.00000000E+00  0.00000000E+00  0.00000000E+00
  0.00000000E+00  0.00000000E+00  0.00000000E+00
  0.00000000E+00  0.00000000E+00  0.00000000E+00
  0.00000000E+00  0.00000000E+00  0.00000000E+00
  0.00000000E+00  0.00000000E+00  0.00000000E+00
  0.00000000E+00  0.00000000E+00  0.00000000E+00
  0.00000000E+00  0.00000000E+00  0.00000000E+00
  0.00000000E+00  0.00000000E+00  0.00000000E+00
  0.00000000E+00  0.00000000E+00  0.00000000E+00
  0.00000000E+00  0.00000000E+00  0.00000000E+00
  0.00000000E+00  0.00000000E+00  0.00000000E+00
  0.00000000E+00  0.00000000E+00  0.00000000E+00
  0.00000000E+00  0.00000000E+00  0.00000000E+00
  0.00000000E+00  0.00000000E+00  0.00000000E+00
  0.00000000E+00  0.00000000E+00  0.00000000E+00
  0.00000000E+00  0.00000000E+00  0.00000000E+00
  0.00000000E+00  0.00000000E+00  0.00000000E+00
  0.00000000E+00  0.00000000E+00  0.00000000E+00
  0.00000000E+00  0.00000000E+00  0.00000000E+00
  0.00000000E+00  0.00000000E+00  0.00000000E+00
  0.00000000E+00  0.00000000E+00  0.00000000E+00
  0.00000000E+00  0.00000000E+00  0.00000000E+00
  0.00000000E+00  0.00000000E+00  0.00000000E+00
  0.00000000E+00  0.00000000E+00  0.00000000E+00
  0.00000000E+00  0.00000000E+00  0.00000000E+00
  0.00000000E+00  0.00000000E+00  0.00000000E+00
