Cu Ga Cu O  C  H                        
   1.00000000000000     
    10.9200000762999991    0.0000000000000000    0.0000000000000000
     0.0000000000000000    7.7216000556999997    0.0000000000000000
     0.0000000000000000    0.0000000000000000   18.8607997894000015
   Cu   Ga   Cu   O    C    H 
    16     1    19     1     1     4
Selective dynamics
Direct
     0.9991371344410749    0.9979582060136379    0.2015798025740091   T   T   T
     0.1658197754357293    0.1670189252507234    0.1393555555749253   T   T   T
     0.1666699946229926    0.1666699946535033    0.0000000000000000   F   F   F
     0.0000000000000000    0.0000000000000000    0.0682300030947403   F   F   F
     0.3330986515735043    0.9944605078299081    0.1991292246505340   T   T   T
     0.4989911736515777    0.1673183450601521    0.1401248481070687   T   T   T
     0.4999999999862652    0.1666699946535033    0.0000000000000000   F   F   F
     0.3333300053632726    0.0000000000000000    0.0682300030947403   F   F   F
     0.6674511349927094    0.0028750329186547    0.2017484690454492   T   T   T
     0.8342208829805403    0.1660622546705953    0.1386744881290757   T   T   T
     0.8333299755876311    0.1666699946535033    0.0000000000000000   F   F   F
     0.6666700243711574    0.0000000000000000    0.0682300030947403   F   F   F
     0.9982657531343931    0.3353967578656847    0.2009944726014609   T   T   T
     0.1724315872248309    0.5013971898160675    0.1424419533941607   T   T   T
     0.1666699946229926    0.5000000000194262    0.0000000000000000   F   F   F
     0.0000000000000000    0.3333300053659229    0.0682300030947403   F   F   F
     0.3315496295340715    0.3276934843158226    0.2137944126217685   T   T   T
     0.4997396262749583    0.4917177075210802    0.1332073945814536   T   T   T
     0.4999999999862652    0.5000000000194262    0.0000000000000000   F   F   F
     0.3333300053632726    0.3333300053659229    0.0682300030947403   F   F   F
     0.6680417168935263    0.3297638362168624    0.2015825859863956   T   T   T
     0.8289464500023556    0.5030118644836897    0.1403294755288961   T   T   T
     0.8333299755876311    0.5000000000194262    0.0000000000000000   F   F   F
     0.6666700243711574    0.3333300053659229    0.0682300030947403   F   F   F
     0.9989241990261249    0.6663083352698765    0.2024138169082824   T   T   T
     0.1682865126246436    0.8288200667447292    0.1406646633326918   T   T   T
     0.1666699946229926    0.8333299755987795    0.0000000000000000   F   F   F
     0.0000000000000000    0.6666700243299957    0.0682300030947403   F   F   F
     0.3502858903997320    0.6699492400354274    0.2064835330732621   T   T   T
     0.5027049149749808    0.8386056493938051    0.1332259981915666   T   T   T
     0.4999999999862652    0.8333299755987795    0.0000000000000000   F   F   F
     0.3333300053632726    0.6666700243299957    0.0682300030947403   F   F   F
     0.6542379474136589    0.6662741393618756    0.2075840416615232   T   T   T
     0.8294870934842369    0.8303217188047950    0.1409348779689780   T   T   T
     0.8333299755876311    0.8333299755987795    0.0000000000000000   F   F   F
     0.6666700243711574    0.6666700243299957    0.0682300030947403   F   F   F
     0.5024410108621372    0.6584947232544093    0.2714986528407707   T   T   T
     0.3261687478596582    0.3199694089133459    0.3207585315581636   T   T   T
     0.2699437271143640    0.2104997016550484    0.3375652752930843   T   T   T
     0.4191675709006200    0.3071526083736066    0.3412352885285744   T   T   T
     0.2857888474390908    0.4402066989860223    0.3402461415319987   T   T   T
     0.5034573223667805    0.7502553058138941    0.3065821545821314   T   T   T
 
  0.00000000E+00  0.00000000E+00  0.00000000E+00
  0.00000000E+00  0.00000000E+00  0.00000000E+00
  0.00000000E+00  0.00000000E+00  0.00000000E+00
  0.00000000E+00  0.00000000E+00  0.00000000E+00
  0.00000000E+00  0.00000000E+00  0.00000000E+00
  0.00000000E+00  0.00000000E+00  0.00000000E+00
  0.00000000E+00  0.00000000E+00  0.00000000E+00
  0.00000000E+00  0.00000000E+00  0.00000000E+00
  0.00000000E+00  0.00000000E+00  0.00000000E+00
  0.00000000E+00  0.00000000E+00  0.00000000E+00
  0.00000000E+00  0.00000000E+00  0.00000000E+00
  0.00000000E+00  0.00000000E+00  0.00000000E+00
  0.00000000E+00  0.00000000E+00  0.00000000E+00
  0.00000000E+00  0.00000000E+00  0.00000000E+00
  0.00000000E+00  0.00000000E+00  0.00000000E+00
  0.00000000E+00  0.00000000E+00  0.00000000E+00
  0.00000000E+00  0.00000000E+00  0.00000000E+00
  0.00000000E+00  0.00000000E+00  0.00000000E+00
  0.00000000E+00  0.00000000E+00  0.00000000E+00
  0.00000000E+00  0.00000000E+00  0.00000000E+00
  0.00000000E+00  0.00000000E+00  0.00000000E+00
  0.00000000E+00  0.00000000E+00  0.00000000E+00
  0.00000000E+00  0.00000000E+00  0.00000000E+00
  0.00000000E+00  0.00000000E+00  0.00000000E+00
  0.00000000E+00  0.00000000E+00  0.00000000E+00
  0.00000000E+00  0.00000000E+00  0.00000000E+00
  0.00000000E+00  0.00000000E+00  0.00000000E+00
  0.00000000E+00  0.00000000E+00  0.00000000E+00
  0.00000000E+00  0.00000000E+00  0.00000000E+00
  0.00000000E+00  0.00000000E+00  0.00000000E+00
  0.00000000E+00  0.00000000E+00  0.00000000E+00
  0.00000000E+00  0.00000000E+00  0.00000000E+00
  0.00000000E+00  0.00000000E+00  0.00000000E+00
  0.00000000E+00  0.00000000E+00  0.00000000E+00
  0.00000000E+00  0.00000000E+00  0.00000000E+00
  0.00000000E+00  0.00000000E+00  0.00000000E+00
  0.00000000E+00  0.00000000E+00  0.00000000E+00
  0.00000000E+00  0.00000000E+00  0.00000000E+00
  0.00000000E+00  0.00000000E+00  0.00000000E+00
  0.00000000E+00  0.00000000E+00  0.00000000E+00
  0.00000000E+00  0.00000000E+00  0.00000000E+00
  0.00000000E+00  0.00000000E+00  0.00000000E+00
