Au Ni Au O                              
   1.00000000000000     
    12.5100002288999992    0.0000000000000000    0.0000000000000000
     0.0000000000000000    8.8458995818999995    0.0000000000000000
     0.0000000000000000    0.0000000000000000   19.4230003356999994
   Au   Ni   Au   O 
    17     1    18     1
Selective dynamics
Direct
  0.0000000000000000  0.0000000000000000  0.0759100019830612   F   F   F
  0.0024375646970129  0.0005859096944184  0.2286498285923274   T   T   T
  0.1700421659116985  0.1678866354526766  0.1581828377620095   T   T   T
  0.1666699946322368  0.1666699945381183  0.0000000000000000   F   F   F
  0.3333300054117316  0.0000000000000000  0.0759100019830612   F   F   F
  0.3343785543360544  0.9915640320005388  0.2388475032219361   T   T   T
  0.4972146412935295  0.1682228947452342  0.1582009482400840   T   T   T
  0.4999999999640323  0.1666699945381183  0.0000000000000000   F   F   F
  0.6666700244124115  0.0000000000000000  0.0759100019830612   F   F   F
  0.6646128246696686  0.0012197359000911  0.2288866720620679   T   T   T
  0.8336107070120250  0.1659083304990187  0.1599728993355888   T   T   T
  0.8333299756395505  0.1666699945381183  0.0000000000000000   F   F   F
  0.0000000000000000  0.3333300053544903  0.0759100019830612   F   F   F
  0.0007845447317786  0.3324403043580220  0.2285637947899237   T   T   T
  0.1711240088912185  0.4966099219218978  0.1610404060128758   T   T   T
  0.1666699946322368  0.5000000000056559  0.0000000000000000   F   F   F
  0.3333300054117316  0.3333300053544903  0.0759100019830612   F   F   F
  0.3347341680828465  0.3376243829810572  0.2181961884841199   T   T   T
  0.4964000717165079  0.4971114174603887  0.1606125791135077   T   T   T
  0.4999999999640323  0.5000000000056559  0.0000000000000000   F   F   F
  0.6666700244124115  0.3333300053544903  0.0759100019830612   F   F   F
  0.6664753320561393  0.3328363704985126  0.2287657993248323   T   T   T
  0.8335081476711541  0.5010465981076326  0.1603511023548241   T   T   T
  0.8333299756395505  0.5000000000056559  0.0000000000000000   F   F   F
  0.0000000000000000  0.6666700243881039  0.0759100019830612   F   F   F
  0.0034351708550176  0.6659980879661982  0.2287185938630125   T   T   T
  0.1692795126422963  0.8346895390276202  0.1597445355195166   T   T   T
  0.1666699946322368  0.8333299756288497  0.0000000000000000   F   F   F
  0.3333300054117316  0.6666700243881039  0.0759100019830612   F   F   F
  0.3337462058175275  0.6669396417518302  0.2292113345234520   T   T   T
  0.4979929598897169  0.8348481441415148  0.1596084833733019   T   T   T
  0.4999999999640323  0.8333299756288497  0.0000000000000000   F   F   F
  0.6666700244124115  0.6666700243881039  0.0759100019830612   F   F   F
  0.6636645323417383  0.6663574531810446  0.2289725511112569   T   T   T
  0.8334619437702439  0.8322427348082485  0.1611413106757004   T   T   T
  0.8333299756395505  0.8333299756288497  0.0000000000000000   F   F   F
  0.3301323842194847  0.2131410076836106  0.2862041297272257   T   T   T
 
  0.00000000E+00  0.00000000E+00  0.00000000E+00
  0.00000000E+00  0.00000000E+00  0.00000000E+00
  0.00000000E+00  0.00000000E+00  0.00000000E+00
  0.00000000E+00  0.00000000E+00  0.00000000E+00
  0.00000000E+00  0.00000000E+00  0.00000000E+00
  0.00000000E+00  0.00000000E+00  0.00000000E+00
  0.00000000E+00  0.00000000E+00  0.00000000E+00
  0.00000000E+00  0.00000000E+00  0.00000000E+00
  0.00000000E+00  0.00000000E+00  0.00000000E+00
  0.00000000E+00  0.00000000E+00  0.00000000E+00
  0.00000000E+00  0.00000000E+00  0.00000000E+00
  0.00000000E+00  0.00000000E+00  0.00000000E+00
  0.00000000E+00  0.00000000E+00  0.00000000E+00
  0.00000000E+00  0.00000000E+00  0.00000000E+00
  0.00000000E+00  0.00000000E+00  0.00000000E+00
  0.00000000E+00  0.00000000E+00  0.00000000E+00
  0.00000000E+00  0.00000000E+00  0.00000000E+00
  0.00000000E+00  0.00000000E+00  0.00000000E+00
  0.00000000E+00  0.00000000E+00  0.00000000E+00
  0.00000000E+00  0.00000000E+00  0.00000000E+00
  0.00000000E+00  0.00000000E+00  0.00000000E+00
  0.00000000E+00  0.00000000E+00  0.00000000E+00
  0.00000000E+00  0.00000000E+00  0.00000000E+00
  0.00000000E+00  0.00000000E+00  0.00000000E+00
  0.00000000E+00  0.00000000E+00  0.00000000E+00
  0.00000000E+00  0.00000000E+00  0.00000000E+00
  0.00000000E+00  0.00000000E+00  0.00000000E+00
  0.00000000E+00  0.00000000E+00  0.00000000E+00
  0.00000000E+00  0.00000000E+00  0.00000000E+00
  0.00000000E+00  0.00000000E+00  0.00000000E+00
  0.00000000E+00  0.00000000E+00  0.00000000E+00
  0.00000000E+00  0.00000000E+00  0.00000000E+00
  0.00000000E+00  0.00000000E+00  0.00000000E+00
  0.00000000E+00  0.00000000E+00  0.00000000E+00
  0.00000000E+00  0.00000000E+00  0.00000000E+00
  0.00000000E+00  0.00000000E+00  0.00000000E+00
  0.00000000E+00  0.00000000E+00  0.00000000E+00
