Ag Hf Ag O  C  H                        
   1.00000000000000     
     8.8247003554999992    0.0000000000000000    0.0000000000000000
     0.0000000000000000    8.8247003554999992    0.0000000000000000
     0.0000000000000000    0.0000000000000000   21.2399997710999990
   Ag   Hf   Ag   O    C    H 
    17     1    18     1     1     4
Selective dynamics
Direct
     0.0000000000000000    0.0000000000000000    0.0979299992192182   F   F   F
     0.0000069870592028    0.0000468822456712    0.3006784879238772   T   T   T
     0.1666699946455736    0.1666699946455736    0.0000000000000000   F   F   F
     0.1686060936854628    0.1702450952472929    0.2018196957899417   T   T   T
     0.3333300053827557    0.0000000000000000    0.0979299992192182   F   F   F
     0.3333949556588366    0.0000594212077791    0.2966356760920275   T   T   T
     0.5000000000283293    0.1666699946455736    0.0000000000000000   F   F   F
     0.4980918339225997    0.1702533102801848    0.2018414053624781   T   T   T
     0.6666700243632988    0.0000000000000000    0.0979299992192182   F   F   F
     0.6667766245265588    0.0001022254693043    0.3006546498908983   T   T   T
     0.8333299756083719    0.1666699946455736    0.0000000000000000   F   F   F
     0.8333331617441522    0.1658981920272820    0.1995153550775544   T   T   T
     0.0000000000000000    0.3333300053827557    0.0979299992192182   F   F   F
     0.0050912633269442    0.3319287753869737    0.3017947243052988   T   T   T
     0.1666699946455736    0.5000000000283293    0.0000000000000000   F   F   F
     0.1692543066855094    0.4970070954854752    0.2021929148478454   T   T   T
     0.3333300053827557    0.3333300053827557    0.0979299992192182   F   F   F
     0.3333463845309880    0.3312774510013465    0.3342003869405152   T   T   T
     0.5000000000283293    0.5000000000283293    0.0000000000000000   F   F   F
     0.4974413421002885    0.4970082652001461    0.2021872124061035   T   T   T
     0.6666700243632988    0.3333300053827557    0.0979299992192182   F   F   F
     0.6615989528499693    0.3319709651172111    0.3018036962582835   T   T   T
     0.8333299756083719    0.5000000000283293    0.0000000000000000   F   F   F
     0.8333533297688623    0.4985212132948966    0.1994840852078706   T   T   T
     0.0000000000000000    0.6666700243632988    0.0979299992192182   F   F   F
     0.9996231490997001    0.6656778228792933    0.3002563494399020   T   T   T
     0.1666699946455736    0.8333299756083719    0.0000000000000000   F   F   F
     0.1640689831660992    0.8344028892715788    0.1983257003872282   T   T   T
     0.3333300053827557    0.6666700243632988    0.0979299992192182   F   F   F
     0.3333446023795872    0.6778481530071588    0.2958634206746600   T   T   T
     0.5000000000283293    0.8333299756083719    0.0000000000000000   F   F   F
     0.5026268326757157    0.8344099108208340    0.1983262782759577   T   T   T
     0.6666700243632988    0.6666700243632988    0.0979299992192182   F   F   F
     0.6670294401638056    0.6657057519379755    0.3002411933591674   T   T   T
     0.8333299756083719    0.8333299756083719    0.0000000000000000   F   F   F
     0.8332903104258890    0.8328481336336536    0.1997986532987536   T   T   T
     0.3333461980427602    0.4901416005107556    0.3951854843451225   T   T   T
     0.3333394224435312    0.1624883092342266    0.4125552142362701   T   T   T
     0.3333371246184295    0.0383978836098638    0.4120090818242941   T   T   T
     0.4342634666983062    0.1981279049568975    0.4393613581165054   T   T   T
     0.2324082911685671    0.1981305343060541    0.4393567220337068   T   T   T
     0.3333266610823596    0.5507639942493058    0.4327500820901535   T   T   T
 
  0.00000000E+00  0.00000000E+00  0.00000000E+00
  0.00000000E+00  0.00000000E+00  0.00000000E+00
  0.00000000E+00  0.00000000E+00  0.00000000E+00
  0.00000000E+00  0.00000000E+00  0.00000000E+00
  0.00000000E+00  0.00000000E+00  0.00000000E+00
  0.00000000E+00  0.00000000E+00  0.00000000E+00
  0.00000000E+00  0.00000000E+00  0.00000000E+00
  0.00000000E+00  0.00000000E+00  0.00000000E+00
  0.00000000E+00  0.00000000E+00  0.00000000E+00
  0.00000000E+00  0.00000000E+00  0.00000000E+00
  0.00000000E+00  0.00000000E+00  0.00000000E+00
  0.00000000E+00  0.00000000E+00  0.00000000E+00
  0.00000000E+00  0.00000000E+00  0.00000000E+00
  0.00000000E+00  0.00000000E+00  0.00000000E+00
  0.00000000E+00  0.00000000E+00  0.00000000E+00
  0.00000000E+00  0.00000000E+00  0.00000000E+00
  0.00000000E+00  0.00000000E+00  0.00000000E+00
  0.00000000E+00  0.00000000E+00  0.00000000E+00
  0.00000000E+00  0.00000000E+00  0.00000000E+00
  0.00000000E+00  0.00000000E+00  0.00000000E+00
  0.00000000E+00  0.00000000E+00  0.00000000E+00
  0.00000000E+00  0.00000000E+00  0.00000000E+00
  0.00000000E+00  0.00000000E+00  0.00000000E+00
  0.00000000E+00  0.00000000E+00  0.00000000E+00
  0.00000000E+00  0.00000000E+00  0.00000000E+00
  0.00000000E+00  0.00000000E+00  0.00000000E+00
  0.00000000E+00  0.00000000E+00  0.00000000E+00
  0.00000000E+00  0.00000000E+00  0.00000000E+00
  0.00000000E+00  0.00000000E+00  0.00000000E+00
  0.00000000E+00  0.00000000E+00  0.00000000E+00
  0.00000000E+00  0.00000000E+00  0.00000000E+00
  0.00000000E+00  0.00000000E+00  0.00000000E+00
  0.00000000E+00  0.00000000E+00  0.00000000E+00
  0.00000000E+00  0.00000000E+00  0.00000000E+00
  0.00000000E+00  0.00000000E+00  0.00000000E+00
  0.00000000E+00  0.00000000E+00  0.00000000E+00
  0.00000000E+00  0.00000000E+00  0.00000000E+00
  0.00000000E+00  0.00000000E+00  0.00000000E+00
  0.00000000E+00  0.00000000E+00  0.00000000E+00
  0.00000000E+00  0.00000000E+00  0.00000000E+00
  0.00000000E+00  0.00000000E+00  0.00000000E+00
  0.00000000E+00  0.00000000E+00  0.00000000E+00
