Cu   Ir   Cu   C    H    O              
   1.00000000000000     
     7.7216000556999997    0.0000000000000000    0.0000000000000000
    -3.8608000277999999    6.6871018061000003    0.0000000000000000
     0.0000000000000000    0.0000000000000000   21.3047008513999998
   Cu   Ir   Cu   C    H    O 
    17     1    18     1     4     1
Selective dynamics
Direct
  0.0000000000000000  0.0000000000000000  0.0000000000000000   F   F   F
  0.9932264129954874  0.0024574463693379  0.2967871994778084   T   T   T
  0.2196817056425033  0.1137965957981336  0.1969678195879851   T   T   T
  0.1111100017667752  0.2222200035364281  0.0986400023008045   F   F   F
  0.3333300053659229  0.0000000000000000  0.0000000000000000   F   F   F
  0.3272608298421978  0.0050461336452040  0.2972232989338041   T   T   T
  0.5554111051703033  0.1166110123470927  0.1991666845321909   T   T   T
  0.4444400071326982  0.2222200035364281  0.0986400023008045   F   F   F
  0.6666700243299957  0.0000000000000000  0.0000000000000000   F   F   F
  0.6602315972058340  0.0015258329695632  0.2956320320044566   T   T   T
  0.8873783747957791  0.1140080834523574  0.1974342381604046   T   T   T
  0.7777799963101941  0.2222200035364281  0.0986400023008045   F   F   F
  0.0000000000045830  0.3333300053794161  0.0000000000000000   F   F   F
  0.9933285962209107  0.3369507333179035  0.2961394116360966   T   T   T
  0.2190469112377968  0.4468536333767118  0.1970512420679520   T   T   T
  0.1111100017242208  0.5555599927626460  0.0986400023008045   F   F   F
  0.3333300053705130  0.3333300053794161  0.0000000000000000   F   F   F
  0.3172771817008135  0.3342564168128901  0.2995242714308968   T   T   T
  0.5523775261715244  0.4447383228451385  0.2010576552529284   T   T   T
  0.4444400072196544  0.5555599927626460  0.0986400023008045   F   F   F
  0.6666700243345787  0.3333300053794161  0.0000000000000000   F   F   F
  0.6721810762530871  0.3294195380759940  0.3103505176274809   T   T   T
  0.8817631453174374  0.4458324456156680  0.1992889381086677   T   T   T
  0.7777799963971503  0.5555599927626460  0.0986400023008045   F   F   F
  0.9999999999481375  0.6666700243644144  0.0000000000000000   F   F   F
  0.9953237053695413  0.6720466271637573  0.2968728254473892   T   T   T
  0.2201983995568194  0.7807085753688644  0.1973994048816611   T   T   T
  0.1111100017896831  0.8888900280503833  0.0986400023008045   F   F   F
  0.3333300054435711  0.6666700243644144  0.0000000000000000   F   F   F
  0.3240952910450507  0.6792078211758176  0.2974230397356570   T   T   T
  0.5537010648579980  0.7804070545276859  0.1984690125391053   T   T   T
  0.4444400072851167  0.8888900280503833  0.0986400023008045   F   F   F
  0.6666700244076367  0.6666700243644144  0.0000000000000000   F   F   F
  0.6707090023203919  0.6809775668076838  0.3014941999100079   T   T   T
  0.8831270551683273  0.7789490219022385  0.1988780555931366   T   T   T
  0.7777799964626126  0.8888900280503833  0.0986400023008045   F   F   F
  0.6970802751733606  0.3277131867029457  0.4179498988272212   T   T   T
  0.7938521103384565  0.4647014571232672  0.4440647873249787   T   T   T
  0.5635900313632484  0.2287672283475623  0.4453457234368738   T   T   T
  0.7802258611149084  0.2492784513187652  0.4108531383138609   T   T   T
  0.5910861517969733  0.4122224981733578  0.3867146524820706   T   T   T
  0.4985568466297884  0.4883269236089193  0.3690563438722047   T   T   T
 
  0.00000000E+00  0.00000000E+00  0.00000000E+00
  0.00000000E+00  0.00000000E+00  0.00000000E+00
  0.00000000E+00  0.00000000E+00  0.00000000E+00
  0.00000000E+00  0.00000000E+00  0.00000000E+00
  0.00000000E+00  0.00000000E+00  0.00000000E+00
  0.00000000E+00  0.00000000E+00  0.00000000E+00
  0.00000000E+00  0.00000000E+00  0.00000000E+00
  0.00000000E+00  0.00000000E+00  0.00000000E+00
  0.00000000E+00  0.00000000E+00  0.00000000E+00
  0.00000000E+00  0.00000000E+00  0.00000000E+00
  0.00000000E+00  0.00000000E+00  0.00000000E+00
  0.00000000E+00  0.00000000E+00  0.00000000E+00
  0.00000000E+00  0.00000000E+00  0.00000000E+00
  0.00000000E+00  0.00000000E+00  0.00000000E+00
  0.00000000E+00  0.00000000E+00  0.00000000E+00
  0.00000000E+00  0.00000000E+00  0.00000000E+00
  0.00000000E+00  0.00000000E+00  0.00000000E+00
  0.00000000E+00  0.00000000E+00  0.00000000E+00
  0.00000000E+00  0.00000000E+00  0.00000000E+00
  0.00000000E+00  0.00000000E+00  0.00000000E+00
  0.00000000E+00  0.00000000E+00  0.00000000E+00
  0.00000000E+00  0.00000000E+00  0.00000000E+00
  0.00000000E+00  0.00000000E+00  0.00000000E+00
  0.00000000E+00  0.00000000E+00  0.00000000E+00
  0.00000000E+00  0.00000000E+00  0.00000000E+00
  0.00000000E+00  0.00000000E+00  0.00000000E+00
  0.00000000E+00  0.00000000E+00  0.00000000E+00
  0.00000000E+00  0.00000000E+00  0.00000000E+00
  0.00000000E+00  0.00000000E+00  0.00000000E+00
  0.00000000E+00  0.00000000E+00  0.00000000E+00
  0.00000000E+00  0.00000000E+00  0.00000000E+00
  0.00000000E+00  0.00000000E+00  0.00000000E+00
  0.00000000E+00  0.00000000E+00  0.00000000E+00
  0.00000000E+00  0.00000000E+00  0.00000000E+00
  0.00000000E+00  0.00000000E+00  0.00000000E+00
  0.00000000E+00  0.00000000E+00  0.00000000E+00
  0.00000000E+00  0.00000000E+00  0.00000000E+00
  0.00000000E+00  0.00000000E+00  0.00000000E+00
  0.00000000E+00  0.00000000E+00  0.00000000E+00
  0.00000000E+00  0.00000000E+00  0.00000000E+00
  0.00000000E+00  0.00000000E+00  0.00000000E+00
  0.00000000E+00  0.00000000E+00  0.00000000E+00
