Ir Ag Ir C  H  O                        
   1.00000000000000     
     8.2306995391999997    0.0000000000000000    0.0000000000000000
    -4.1153497695999999    7.1279948919000002    0.0000000000000000
     0.0000000000000000    0.0000000000000000   21.7203998566000003
   Ir   Ag   Ir   C    H    O 
    17     1    18     1     4     1
Selective dynamics
Direct
  0.0000000000000000  0.0000000000000000  0.0000000000000000   F   F   F
  0.9905655025554202  0.9893787293454501  0.3055683710349401   T   T   T
  0.2225237375396414  0.1115869962098260  0.2049939739968421   T   T   T
  0.1111100018323512  0.2222200036647024  0.1031299978264144   F   F   F
  0.3333300054185528  0.0000000000000000  0.0000000000000000   F   F   F
  0.3321725019659045  0.9894477126442502  0.3055069542083788   T   T   T
  0.5530583205874886  0.1106660351129653  0.2047251166850964   T   T   T
  0.4444400072509040  0.2222200036647024  0.1031299978264144   F   F   F
  0.6666700244452528  0.0000000000000000  0.0000000000000000   F   F   F
  0.6701551519568260  0.0067983439268586  0.3057979966720378   T   T   T
  0.8909762102536279  0.1108121273543676  0.2047661088370372   T   T   T
  0.7777799963894978  0.2222200036647024  0.1031299978264144   F   F   F
  0.0000000000041780  0.3333300054269088  0.0000000000000000   F   F   F
  0.9906350415242341  0.3296347748926334  0.3051319235723521   T   T   T
  0.2242020516862804  0.4436217283660717  0.2054906715147298   T   T   T
  0.1111100017824072  0.5555599928249180  0.1031299978264144   F   F   F
  0.3333300054227308  0.3333300054269088  0.0000000000000000   F   F   F
  0.3214073423173526  0.3106917776059445  0.3324016352961836   T   T   T
  0.5526996239720335  0.4436479851239824  0.2054501580534820   T   T   T
  0.4444400072009600  0.5555599928249180  0.1031299978264144   F   F   F
  0.6666700244494308  0.3333300054269088  0.0000000000000000   F   F   F
  0.6720692751640817  0.3296531308955639  0.3049170588981158   T   T   T
  0.8889911131599361  0.4445991553946238  0.2032395945206787   T   T   T
  0.7777799964610566  0.5555599928249180  0.1031299978264144   F   F   F
  0.0000000000026219  0.6666700243290080  0.0000000000000000   F   F   F
 -0.0006035077583189  0.6650399275761074  0.3058262586975237   T   T   T
  0.2208337064696426  0.7738388926528087  0.2045809596690407   T   T   T
  0.1111100018349731  0.8888900279937104  0.1031299978264144   F   F   F
  0.3333300054211747  0.6666700243290080  0.0000000000000000   F   F   F
  0.3317305765763608  0.6731499092666597  0.3107353177886295   T   T   T
  0.5546191633417811  0.7760170754280072  0.2038158284605792   T   T   T
  0.4444400072535259  0.8888900279937104  0.1031299978264144   F   F   F
  0.6666700243263790  0.6666700243290080  0.0000000000000000   F   F   F
  0.6749866040641237  0.6731142795094648  0.3105130171522364   T   T   T
  0.8865173872772506  0.7739459063661395  0.2045962141466476   T   T   T
  0.7777799963921268  0.8888900279937104  0.1031299978264144   F   F   F
  0.6749200258589337  0.3326975598773470  0.4775627544555363   T   T   T
  0.7844559153371864  0.4378238287194942  0.5069894945857619   T   T   T
  0.5637280504177729  0.2246031769416307  0.5057607579378203   T   T   T
  0.7349539632703245  0.2684241328534575  0.4482564204313704   T   T   T
  0.6168758292139882  0.4005103243805888  0.4489977518991655   T   T   T
  0.4733698212562470  0.6119831145395033  0.3725999129063373   T   T   T
 
  0.00000000E+00  0.00000000E+00  0.00000000E+00
  0.00000000E+00  0.00000000E+00  0.00000000E+00
  0.00000000E+00  0.00000000E+00  0.00000000E+00
  0.00000000E+00  0.00000000E+00  0.00000000E+00
  0.00000000E+00  0.00000000E+00  0.00000000E+00
  0.00000000E+00  0.00000000E+00  0.00000000E+00
  0.00000000E+00  0.00000000E+00  0.00000000E+00
  0.00000000E+00  0.00000000E+00  0.00000000E+00
  0.00000000E+00  0.00000000E+00  0.00000000E+00
  0.00000000E+00  0.00000000E+00  0.00000000E+00
  0.00000000E+00  0.00000000E+00  0.00000000E+00
  0.00000000E+00  0.00000000E+00  0.00000000E+00
  0.00000000E+00  0.00000000E+00  0.00000000E+00
  0.00000000E+00  0.00000000E+00  0.00000000E+00
  0.00000000E+00  0.00000000E+00  0.00000000E+00
  0.00000000E+00  0.00000000E+00  0.00000000E+00
  0.00000000E+00  0.00000000E+00  0.00000000E+00
  0.00000000E+00  0.00000000E+00  0.00000000E+00
  0.00000000E+00  0.00000000E+00  0.00000000E+00
  0.00000000E+00  0.00000000E+00  0.00000000E+00
  0.00000000E+00  0.00000000E+00  0.00000000E+00
  0.00000000E+00  0.00000000E+00  0.00000000E+00
  0.00000000E+00  0.00000000E+00  0.00000000E+00
  0.00000000E+00  0.00000000E+00  0.00000000E+00
  0.00000000E+00  0.00000000E+00  0.00000000E+00
  0.00000000E+00  0.00000000E+00  0.00000000E+00
  0.00000000E+00  0.00000000E+00  0.00000000E+00
  0.00000000E+00  0.00000000E+00  0.00000000E+00
  0.00000000E+00  0.00000000E+00  0.00000000E+00
  0.00000000E+00  0.00000000E+00  0.00000000E+00
  0.00000000E+00  0.00000000E+00  0.00000000E+00
  0.00000000E+00  0.00000000E+00  0.00000000E+00
  0.00000000E+00  0.00000000E+00  0.00000000E+00
  0.00000000E+00  0.00000000E+00  0.00000000E+00
  0.00000000E+00  0.00000000E+00  0.00000000E+00
  0.00000000E+00  0.00000000E+00  0.00000000E+00
  0.00000000E+00  0.00000000E+00  0.00000000E+00
  0.00000000E+00  0.00000000E+00  0.00000000E+00
  0.00000000E+00  0.00000000E+00  0.00000000E+00
  0.00000000E+00  0.00000000E+00  0.00000000E+00
  0.00000000E+00  0.00000000E+00  0.00000000E+00
  0.00000000E+00  0.00000000E+00  0.00000000E+00
