Ir Ag Ir O                              
   1.00000000000000     
     8.2306995391999997    0.0000000000000000    0.0000000000000000
    -4.1153497695999999    7.1279948919000002    0.0000000000000000
     0.0000000000000000    0.0000000000000000   21.7203998566000003
   Ir   Ag   Ir   O 
    17     1    18     1
Selective dynamics
Direct
  0.0000000000000000  0.0000000000000000  0.0000000000000000   F   F   F
  0.9905776742228912  0.9893636482148204  0.3055525016703791   T   T   T
  0.2225263683755452  0.1116221264559414  0.2049771618908373   T   T   T
  0.1111100018323512  0.2222200036647024  0.1031299978264144   F   F   F
  0.3333300054185528  0.0000000000000000  0.0000000000000000   F   F   F
  0.3321716635113005  0.9894707146541448  0.3055173738159437   T   T   T
  0.5530464182004848  0.1106960036003273  0.2046963065862459   T   T   T
  0.4444400072509040  0.2222200036647024  0.1031299978264144   F   F   F
  0.6666700244452528  0.0000000000000000  0.0000000000000000   F   F   F
  0.6701282144842584  0.0068089231372129  0.3058119338278699   T   T   T
  0.8910202218484938  0.1108175317935561  0.2047409397257639   T   T   T
  0.7777799963894978  0.2222200036647024  0.1031299978264144   F   F   F
  0.0000000000041780  0.3333300054269088  0.0000000000000000   F   F   F
  0.9905947493188247  0.3296194904792751  0.3051489299461562   T   T   T
  0.2241925220278529  0.4435805095469969  0.2054810418551976   T   T   T
  0.1111100017824072  0.5555599928249180  0.1031299978264144   F   F   F
  0.3333300054227308  0.3333300054269088  0.0000000000000000   F   F   F
  0.3214884599949442  0.3107107794137587  0.3324290123475300   T   T   T
  0.5527064603079263  0.4436397351163604  0.2054439273724781   T   T   T
  0.4444400072009600  0.5555599928249180  0.1031299978264144   F   F   F
  0.6666700244494308  0.3333300054269088  0.0000000000000000   F   F   F
  0.6720696878865406  0.3296311437381257  0.3049969770260095   T   T   T
  0.8890211846682109  0.4446660566501423  0.2032051797112318   T   T   T
  0.7777799964610566  0.5555599928249180  0.1031299978264144   F   F   F
  0.0000000000026219  0.6666700243290080  0.0000000000000000   F   F   F
  0.9993577747923161  0.6649952587618582  0.3058226651456967   T   T   T
  0.2207719532732669  0.7738354188955218  0.2045705007617069   T   T   T
  0.1111100018349731  0.8888900279937104  0.1031299978264144   F   F   F
  0.3333300054211747  0.6666700243290080  0.0000000000000000   F   F   F
  0.3317601589968507  0.6731254852729969  0.3107376506543431   T   T   T
  0.5546682788159966  0.7760348731715827  0.2038269339041763   T   T   T
  0.4444400072535259  0.8888900279937104  0.1031299978264144   F   F   F
  0.6666700243263790  0.6666700243290080  0.0000000000000000   F   F   F
  0.6749316513812846  0.6730534599885992  0.3105434199676524   T   T   T
  0.8865453448665140  0.7739439803285442  0.2045799458439250   T   T   T
  0.7777799963921268  0.8888900279937104  0.1031299978264144   F   F   F
  0.4733287072388911  0.6120206376648086  0.3725605559833854   T   T   T
 
  0.00000000E+00  0.00000000E+00  0.00000000E+00
  0.00000000E+00  0.00000000E+00  0.00000000E+00
  0.00000000E+00  0.00000000E+00  0.00000000E+00
  0.00000000E+00  0.00000000E+00  0.00000000E+00
  0.00000000E+00  0.00000000E+00  0.00000000E+00
  0.00000000E+00  0.00000000E+00  0.00000000E+00
  0.00000000E+00  0.00000000E+00  0.00000000E+00
  0.00000000E+00  0.00000000E+00  0.00000000E+00
  0.00000000E+00  0.00000000E+00  0.00000000E+00
  0.00000000E+00  0.00000000E+00  0.00000000E+00
  0.00000000E+00  0.00000000E+00  0.00000000E+00
  0.00000000E+00  0.00000000E+00  0.00000000E+00
  0.00000000E+00  0.00000000E+00  0.00000000E+00
  0.00000000E+00  0.00000000E+00  0.00000000E+00
  0.00000000E+00  0.00000000E+00  0.00000000E+00
  0.00000000E+00  0.00000000E+00  0.00000000E+00
  0.00000000E+00  0.00000000E+00  0.00000000E+00
  0.00000000E+00  0.00000000E+00  0.00000000E+00
  0.00000000E+00  0.00000000E+00  0.00000000E+00
  0.00000000E+00  0.00000000E+00  0.00000000E+00
  0.00000000E+00  0.00000000E+00  0.00000000E+00
  0.00000000E+00  0.00000000E+00  0.00000000E+00
  0.00000000E+00  0.00000000E+00  0.00000000E+00
  0.00000000E+00  0.00000000E+00  0.00000000E+00
  0.00000000E+00  0.00000000E+00  0.00000000E+00
  0.00000000E+00  0.00000000E+00  0.00000000E+00
  0.00000000E+00  0.00000000E+00  0.00000000E+00
  0.00000000E+00  0.00000000E+00  0.00000000E+00
  0.00000000E+00  0.00000000E+00  0.00000000E+00
  0.00000000E+00  0.00000000E+00  0.00000000E+00
  0.00000000E+00  0.00000000E+00  0.00000000E+00
  0.00000000E+00  0.00000000E+00  0.00000000E+00
  0.00000000E+00  0.00000000E+00  0.00000000E+00
  0.00000000E+00  0.00000000E+00  0.00000000E+00
  0.00000000E+00  0.00000000E+00  0.00000000E+00
  0.00000000E+00  0.00000000E+00  0.00000000E+00
  0.00000000E+00  0.00000000E+00  0.00000000E+00
