Pt Ag Pt C  H  O                        
   1.00000000000000     
     8.4428997040000002    0.0000000000000000    0.0000000000000000
    -4.2214498520000001    7.3117656252999996    0.0000000000000000
     0.0000000000000000    0.0000000000000000   21.8936004639000004
   Pt   Ag   Pt   C    H    O 
    17     1    18     1     4     1
Selective dynamics
Direct
  0.0000000000000000  0.0000000000000000  0.0000000000000000   F   F   F
  0.9967050109793874  0.9968280308651372  0.3165857505069342   T   T   T
  0.2232747963733833  0.1143498016325889  0.2119131623138230   T   T   T
  0.1111100018289619  0.2222200036579167  0.1049600020238373   F   F   F
  0.3333300054087687  0.0000000000000000  0.0000000000000000   F   F   F
  0.3351791607814756  0.0011497187254878  0.3151517093240265   T   T   T
  0.5551617563694600  0.1115104888373932  0.2094705785072422   T   T   T
  0.4444400072377235  0.2222200036579167  0.1049600020238373   F   F   F
  0.6666700244388011  0.0000000000000000  0.0000000000000000   F   F   F
  0.6665586776352906  0.0001124359967597  0.3167291863070421   T   T   T
  0.8904427626036109  0.1139427636567057  0.2114075677683687   T   T   T
  0.7777799964201932  0.2222200036579167  0.1049600020238373   F   F   F
  0.9999999999706688  0.3333300053501134  0.0000000000000000   F   F   F
  0.9915435359673335  0.3190145983269543  0.3192597575707433   T   T   T
  0.2231771805598861  0.4434922694791477  0.2124695930254561   T   T   T
  0.1111100017987212  0.5555599927799051  0.1049600020238373   F   F   F
  0.3333300053794375  0.3333300053501134  0.0000000000000000   F   F   F
  0.3342048955854154  0.3324199240637001  0.3310073670098484   T   T   T
  0.5523419794400654  0.4434045801809685  0.2119140204537713   T   T   T
  0.4444400072074828  0.5555599927799051  0.1049600020238373   F   F   F
  0.6666700244094699  0.3333300053501134  0.0000000000000000   F   F   F
  0.6655041365514605  0.3315052121072858  0.3151627988237237   T   T   T
  0.8897871374663779  0.4455653749068214  0.2099704107746342   T   T   T
  0.7777799963899525  0.5555599927799051  0.1049600020238373   F   F   F
  0.9999999999925109  0.6666700244238228  0.0000000000000000   F   F   F
  0.9925168073216976  0.6741422706685833  0.3203058053218920   T   T   T
  0.2210989234497580  0.7768789923808482  0.2099700683131439   T   T   T
  0.1111100017530902  0.8888900279449743  0.1049600020238373   F   F   F
  0.3333300054012795  0.6666700244238228  0.0000000000000000   F   F   F
  0.3476508142216617  0.6751204770279007  0.3192599289280025   T   T   T
  0.5527213006976764  0.7762270408443606  0.2114053266362345   T   T   T
  0.4444400071618517  0.8888900279449743  0.1049600020238373   F   F   F
  0.6666700244313120  0.6666700244238228  0.0000000000000000   F   F   F
  0.6698319196849979  0.6699657059880405  0.3165806310449504   T   T   T
  0.8902242105256174  0.7764538056912870  0.2103479554945303   T   T   T
  0.7777799963443215  0.8888900279449743  0.1049600020238373   F   F   F
  0.3347441347099970  0.3319212534397409  0.4858597735694933   T   T   T
  0.4419071694438170  0.4365202915290438  0.5143658087118089   T   T   T
  0.2301453369491158  0.2247581557716835  0.5143658560065405   T   T   T
  0.3949366123855797  0.2717292433871745  0.4562734747277026   T   T   T
  0.2722194545715518  0.3944458426132044  0.4585740221217485   T   T   T
  0.1122670260984790  0.5544034933254147  0.3706879411248448   T   T   T
 
  0.00000000E+00  0.00000000E+00  0.00000000E+00
  0.00000000E+00  0.00000000E+00  0.00000000E+00
  0.00000000E+00  0.00000000E+00  0.00000000E+00
  0.00000000E+00  0.00000000E+00  0.00000000E+00
  0.00000000E+00  0.00000000E+00  0.00000000E+00
  0.00000000E+00  0.00000000E+00  0.00000000E+00
  0.00000000E+00  0.00000000E+00  0.00000000E+00
  0.00000000E+00  0.00000000E+00  0.00000000E+00
  0.00000000E+00  0.00000000E+00  0.00000000E+00
  0.00000000E+00  0.00000000E+00  0.00000000E+00
  0.00000000E+00  0.00000000E+00  0.00000000E+00
  0.00000000E+00  0.00000000E+00  0.00000000E+00
  0.00000000E+00  0.00000000E+00  0.00000000E+00
  0.00000000E+00  0.00000000E+00  0.00000000E+00
  0.00000000E+00  0.00000000E+00  0.00000000E+00
  0.00000000E+00  0.00000000E+00  0.00000000E+00
  0.00000000E+00  0.00000000E+00  0.00000000E+00
  0.00000000E+00  0.00000000E+00  0.00000000E+00
  0.00000000E+00  0.00000000E+00  0.00000000E+00
  0.00000000E+00  0.00000000E+00  0.00000000E+00
  0.00000000E+00  0.00000000E+00  0.00000000E+00
  0.00000000E+00  0.00000000E+00  0.00000000E+00
  0.00000000E+00  0.00000000E+00  0.00000000E+00
  0.00000000E+00  0.00000000E+00  0.00000000E+00
  0.00000000E+00  0.00000000E+00  0.00000000E+00
  0.00000000E+00  0.00000000E+00  0.00000000E+00
  0.00000000E+00  0.00000000E+00  0.00000000E+00
  0.00000000E+00  0.00000000E+00  0.00000000E+00
  0.00000000E+00  0.00000000E+00  0.00000000E+00
  0.00000000E+00  0.00000000E+00  0.00000000E+00
  0.00000000E+00  0.00000000E+00  0.00000000E+00
  0.00000000E+00  0.00000000E+00  0.00000000E+00
  0.00000000E+00  0.00000000E+00  0.00000000E+00
  0.00000000E+00  0.00000000E+00  0.00000000E+00
  0.00000000E+00  0.00000000E+00  0.00000000E+00
  0.00000000E+00  0.00000000E+00  0.00000000E+00
  0.00000000E+00  0.00000000E+00  0.00000000E+00
  0.00000000E+00  0.00000000E+00  0.00000000E+00
  0.00000000E+00  0.00000000E+00  0.00000000E+00
  0.00000000E+00  0.00000000E+00  0.00000000E+00
  0.00000000E+00  0.00000000E+00  0.00000000E+00
  0.00000000E+00  0.00000000E+00  0.00000000E+00
