Pt   Ag   Pt   C    H    O              
   1.00000000000000     
     8.4428997040000002    0.0000000000000000    0.0000000000000000
    -4.2214498520000001    7.3117656252999996    0.0000000000000000
     0.0000000000000000    0.0000000000000000   21.8936004639000004
   Pt   Ag   Pt   C    H    O 
    17     1    18     1     4     1
Selective dynamics
Direct
  0.0000000000000000  0.0000000000000000  0.0000000000000000   F   F   F
  0.0014194953751610  0.9935220870216107  0.3164015511155843   T   T   T
  0.2249492333309191  0.1142861268608193  0.2124384878966770   T   T   T
  0.1111100018289619  0.2222200036579167  0.1049600020238373   F   F   F
  0.3333300054087687  0.0000000000000000  0.0000000000000000   F   F   F
  0.3362258049882830  0.9922566153805973  0.3145080112232678   T   T   T
  0.5561299965644613  0.1105766016494336  0.2092347255551731   T   T   T
  0.4444400072377235  0.2222200036579167  0.1049600020238373   F   F   F
  0.6666700244388011  0.0000000000000000  0.0000000000000000   F   F   F
  0.6698907598948511  0.9968491887604138  0.3160045589419153   T   T   T
  0.8911671861865276  0.1142157640423649  0.2116199248362908   T   T   T
  0.7777799964201932  0.2222200036579167  0.1049600020238373   F   F   F
  0.9999999999706688  0.3333300053501134  0.0000000000000000   F   F   F
  0.9990795465357043  0.3204256368180516  0.3170167694449678   T   T   T
  0.2249404410631191  0.4417361167837032  0.2117084239435506   T   T   T
  0.1111100017987212  0.5555599927799051  0.1049600020238373   F   F   F
  0.3333300053794375  0.3333300053501134  0.0000000000000000   F   F   F
  0.3437572566333279  0.3229919526441088  0.3351345681583746   T   T   T
  0.5524190706957915  0.4417684820420134  0.2124425472338261   T   T   T
  0.4444400072074828  0.5555599927799051  0.1049600020238373   F   F   F
  0.6666700244094699  0.3333300053501134  0.0000000000000000   F   F   F
  0.6744917914248798  0.3305172115097624  0.3145038972803050   T   T   T
  0.8903244910249899  0.4441459383171453  0.2088593902197472   T   T   T
  0.7777799963899525  0.5555599927799051  0.1049600020238373   F   F   F
  0.9999999999925109  0.6666700244238228  0.0000000000000000   F   F   F
  0.9987900181542818  0.6679837926599707  0.3137271729071601   T   T   T
  0.2225561750457408  0.7763816421145110  0.2088559594979925   T   T   T
  0.1111100017530902  0.8888900279449743  0.1049600020238373   F   F   F
  0.3333300054012795  0.6666700244238228  0.0000000000000000   F   F   F
  0.3462921818827763  0.6676447431100849  0.3170089833382737   T   T   T
  0.5524841798584365  0.7755483152999737  0.2116202094442127   T   T   T
  0.4444400071618517  0.8888900279449743  0.1049600020238373   F   F   F
  0.6666700244313120  0.6666700244238228  0.0000000000000000   F   F   F
  0.6732374226555747  0.6653127973816964  0.3163985321051568   T   T   T
  0.8886436207258666  0.7781113603934882  0.2083706057570854   T   T   T
  0.7777799963443215  0.8888900279449743  0.1049600020238373   F   F   F
  0.3186225670651511  0.3485290533772181  0.4495355412390117   T   T   T
  0.4045007045555474  0.4782674225547376  0.4727171520810473   T   T   T
  0.1889382249693113  0.2620233203207485  0.4726617942304926   T   T   T
  0.3931607553068009  0.2747709677317023  0.4441916800771262   T   T   T
  0.2359768059821142  0.4309203422200205  0.4091524830383304   T   T   T
  0.1651787867474565  0.5015412855264886  0.3858910721726668   T   T   T
 
  0.00000000E+00  0.00000000E+00  0.00000000E+00
  0.00000000E+00  0.00000000E+00  0.00000000E+00
  0.00000000E+00  0.00000000E+00  0.00000000E+00
  0.00000000E+00  0.00000000E+00  0.00000000E+00
  0.00000000E+00  0.00000000E+00  0.00000000E+00
  0.00000000E+00  0.00000000E+00  0.00000000E+00
  0.00000000E+00  0.00000000E+00  0.00000000E+00
  0.00000000E+00  0.00000000E+00  0.00000000E+00
  0.00000000E+00  0.00000000E+00  0.00000000E+00
  0.00000000E+00  0.00000000E+00  0.00000000E+00
  0.00000000E+00  0.00000000E+00  0.00000000E+00
  0.00000000E+00  0.00000000E+00  0.00000000E+00
  0.00000000E+00  0.00000000E+00  0.00000000E+00
  0.00000000E+00  0.00000000E+00  0.00000000E+00
  0.00000000E+00  0.00000000E+00  0.00000000E+00
  0.00000000E+00  0.00000000E+00  0.00000000E+00
  0.00000000E+00  0.00000000E+00  0.00000000E+00
  0.00000000E+00  0.00000000E+00  0.00000000E+00
  0.00000000E+00  0.00000000E+00  0.00000000E+00
  0.00000000E+00  0.00000000E+00  0.00000000E+00
  0.00000000E+00  0.00000000E+00  0.00000000E+00
  0.00000000E+00  0.00000000E+00  0.00000000E+00
  0.00000000E+00  0.00000000E+00  0.00000000E+00
  0.00000000E+00  0.00000000E+00  0.00000000E+00
  0.00000000E+00  0.00000000E+00  0.00000000E+00
  0.00000000E+00  0.00000000E+00  0.00000000E+00
  0.00000000E+00  0.00000000E+00  0.00000000E+00
  0.00000000E+00  0.00000000E+00  0.00000000E+00
  0.00000000E+00  0.00000000E+00  0.00000000E+00
  0.00000000E+00  0.00000000E+00  0.00000000E+00
  0.00000000E+00  0.00000000E+00  0.00000000E+00
  0.00000000E+00  0.00000000E+00  0.00000000E+00
  0.00000000E+00  0.00000000E+00  0.00000000E+00
  0.00000000E+00  0.00000000E+00  0.00000000E+00
  0.00000000E+00  0.00000000E+00  0.00000000E+00
  0.00000000E+00  0.00000000E+00  0.00000000E+00
  0.00000000E+00  0.00000000E+00  0.00000000E+00
  0.00000000E+00  0.00000000E+00  0.00000000E+00
  0.00000000E+00  0.00000000E+00  0.00000000E+00
  0.00000000E+00  0.00000000E+00  0.00000000E+00
  0.00000000E+00  0.00000000E+00  0.00000000E+00
  0.00000000E+00  0.00000000E+00  0.00000000E+00
