Cu Ta Cu O                              
   1.00000000000000     
     6.3046998978000000    0.0000000000000000    0.0000000000000000
     0.0000000000000000    7.7216000556999997    0.0000000000000000
     0.0000000000000000    0.0000000000000000   25.4022006988999998
   Cu   Ta   Cu   O 
    19     1    25     1
Selective dynamics
Direct
  0.0000000000000000  0.0000000000000000  0.0000000000000000   F   F   F
  0.3333299999999966  0.0000000000000000  0.1169999999999973   F   F   F
  0.6642573940300474 -0.0001410573564664  0.2326210171386881   T   T   T
 -0.0111003184600694  0.0010275649565668  0.3524819876959563   T   T   T
  0.6425253434658178 -0.0046346691981783  0.4025944196489585   T   T   T
  0.6666700000000034  0.0000000000000000  0.0585000000000022   F   F   F
 -0.0002878691365845 -0.0002659135361906  0.1751866055267842   T   T   T
  0.3267548431617247  0.0013699355680459  0.2920396160733965   T   T   T
  0.3333299999999966  0.1666700000000034  0.0292499999999976   F   F   F
  0.6666700000000034  0.1666700000000034  0.1462500000000020   F   F   F
 -0.0018035831607380  0.1665060005049081  0.2621011215933058   T   T   T
  0.3220823446451453  0.1689172355093919  0.3804395222407067   T   T   T
  0.0000000000000000  0.1666700000000034  0.0877499999999998   F   F   F
  0.3316994072983733  0.1665078484516409  0.2045475567521314   T   T   T
  0.6671767967075521  0.1667371142546616  0.3193338370934896   T   T   T
  0.0000000000000000  0.3333299999999966  0.0000000000000000   F   F   F
  0.3333299999999966  0.3333299999999966  0.1169999999999973   F   F   F
  0.6649783495382080  0.3335542450417647  0.2329594125884876   T   T   T
 -0.0025148797453913  0.3337718951562461  0.3505374499093475   T   T   T
  0.6708048434392530  0.3337110139576783  0.4163644306510160   T   T   T
  0.6666700000000034  0.3333299999999966  0.0585000000000022   F   F   F
  0.0001480605892993  0.3334819046467368  0.1749584341175939   T   T   T
  0.3314994384687431  0.3337025024403376  0.2915535439437418   T   T   T
  0.3333299999999966  0.5000000000000000  0.0292499999999976   F   F   F
  0.6666700000000034  0.5000000000000000  0.1462500000000020   F   F   F
 -0.0021219433657159  0.5002860889532980  0.2621127567635068   T   T   T
  0.3221671248885615  0.4987680259259966  0.3805008136192832   T   T   T
  0.0000000000000000  0.5000000000000000  0.0877499999999998   F   F   F
  0.3315346502588734  0.5002588819795595  0.2045095354747079   T   T   T
  0.6669507240024020  0.5002414448953195  0.3193561554764933   T   T   T
  0.0000000000000000  0.6666700000000034  0.0000000000000000   F   F   F
  0.3333299999999966  0.6666700000000034  0.1169999999999973   F   F   F
  0.6640708246046989  0.6671008639155873  0.2326051100673466   T   T   T
 -0.0108210800649022  0.6657569640210824  0.3523078349333355   T   T   T
  0.6429469273956344  0.6722370771562187  0.4025177780007618   T   T   T
  0.6666700000000034  0.6666700000000034  0.0585000000000022   F   F   F
 -0.0003241622924415  0.6671292636950358  0.1751219342318726   T   T   T
  0.3266398059471762  0.6657912372679385  0.2920933810119744   T   T   T
  0.3333299999999966  0.8333299999999966  0.0292499999999976   F   F   F
  0.6666700000000034  0.8333299999999966  0.1462500000000020   F   F   F
 -0.0020859851788762  0.8335706199934647  0.2627792805815851   T   T   T
  0.3134279151782933  0.8336777048412198  0.3777315426495989   T   T   T
  0.0000000000000000  0.8333299999999966  0.0877499999999998   F   F   F
  0.3320548275129886  0.8335468463333068  0.2045699288811644   T   T   T
  0.6620127675313471  0.8338294823041209  0.3185448205821615   T   T   T
  0.7185660954289640  0.3341543319216179  0.4838334065209184   T   T   T
 
  0.00000000E+00  0.00000000E+00  0.00000000E+00
  0.00000000E+00  0.00000000E+00  0.00000000E+00
  0.00000000E+00  0.00000000E+00  0.00000000E+00
  0.00000000E+00  0.00000000E+00  0.00000000E+00
  0.00000000E+00  0.00000000E+00  0.00000000E+00
  0.00000000E+00  0.00000000E+00  0.00000000E+00
  0.00000000E+00  0.00000000E+00  0.00000000E+00
  0.00000000E+00  0.00000000E+00  0.00000000E+00
  0.00000000E+00  0.00000000E+00  0.00000000E+00
  0.00000000E+00  0.00000000E+00  0.00000000E+00
  0.00000000E+00  0.00000000E+00  0.00000000E+00
  0.00000000E+00  0.00000000E+00  0.00000000E+00
  0.00000000E+00  0.00000000E+00  0.00000000E+00
  0.00000000E+00  0.00000000E+00  0.00000000E+00
  0.00000000E+00  0.00000000E+00  0.00000000E+00
  0.00000000E+00  0.00000000E+00  0.00000000E+00
  0.00000000E+00  0.00000000E+00  0.00000000E+00
  0.00000000E+00  0.00000000E+00  0.00000000E+00
  0.00000000E+00  0.00000000E+00  0.00000000E+00
  0.00000000E+00  0.00000000E+00  0.00000000E+00
  0.00000000E+00  0.00000000E+00  0.00000000E+00
  0.00000000E+00  0.00000000E+00  0.00000000E+00
  0.00000000E+00  0.00000000E+00  0.00000000E+00
  0.00000000E+00  0.00000000E+00  0.00000000E+00
  0.00000000E+00  0.00000000E+00  0.00000000E+00
  0.00000000E+00  0.00000000E+00  0.00000000E+00
  0.00000000E+00  0.00000000E+00  0.00000000E+00
  0.00000000E+00  0.00000000E+00  0.00000000E+00
  0.00000000E+00  0.00000000E+00  0.00000000E+00
  0.00000000E+00  0.00000000E+00  0.00000000E+00
  0.00000000E+00  0.00000000E+00  0.00000000E+00
  0.00000000E+00  0.00000000E+00  0.00000000E+00
  0.00000000E+00  0.00000000E+00  0.00000000E+00
  0.00000000E+00  0.00000000E+00  0.00000000E+00
  0.00000000E+00  0.00000000E+00  0.00000000E+00
  0.00000000E+00  0.00000000E+00  0.00000000E+00
  0.00000000E+00  0.00000000E+00  0.00000000E+00
  0.00000000E+00  0.00000000E+00  0.00000000E+00
  0.00000000E+00  0.00000000E+00  0.00000000E+00
  0.00000000E+00  0.00000000E+00  0.00000000E+00
  0.00000000E+00  0.00000000E+00  0.00000000E+00
  0.00000000E+00  0.00000000E+00  0.00000000E+00
  0.00000000E+00  0.00000000E+00  0.00000000E+00
  0.00000000E+00  0.00000000E+00  0.00000000E+00
  0.00000000E+00  0.00000000E+00  0.00000000E+00
  0.00000000E+00  0.00000000E+00  0.00000000E+00
