Au Y  Au O                              
   1.00000000000000     
     8.8458995818999995    0.0000000000000000    0.0000000000000000
     0.0000000000000000    8.8458995818999995    0.0000000000000000
     0.0000000000000000    0.0000000000000000   21.2549991608000006
   Au   Y    Au   O 
    17     1    18     1
Selective dynamics
Direct
  0.0000000000000000  0.0000000000000000  0.0980900004383471   F   F   F
  0.0123919955141228  0.0014553293476016  0.2930080536492147   T   T   T
  0.1666699945381183  0.1666699945381183  0.0000000000000000   F   F   F
  0.1732498621389384  0.1740208792896866  0.1986632443282464   T   T   T
  0.3333300053544903  0.0000000000000000  0.0980900004383471   F   F   F
  0.3488312383048991  0.0030031952753050  0.2948414666452118   T   T   T
  0.5000000000056559  0.1666699945381183  0.0000000000000000   F   F   F
  0.4998973661448256  0.1667336668688415  0.1946606710493503   T   T   T
  0.6666700243881039  0.0000000000000000  0.0980900004383471   F   F   F
  0.6872374642755485  0.9794468135846501  0.2919159766823396   T   T   T
  0.8333299756288497  0.1666699945381183  0.0000000000000000   F   F   F
  0.8327171822200441  0.1601822078726952  0.1945664598180095   T   T   T
  0.0000000000000000  0.3333300053544903  0.0980900004383471   F   F   F
 -0.0153548160040705  0.3291509793821363  0.2929699635238411   T   T   T
  0.1666699945381183  0.5000000000056559  0.0000000000000000   F   F   F
  0.1668589379105632  0.4998049156833577  0.1953951361800842   T   T   T
  0.3333300053544903  0.3333300053544903  0.0980900004383471   F   F   F
  0.3176631903911540  0.3489602280546797  0.3149156828249876   T   T   T
  0.5000000000056559  0.5000000000056559  0.0000000000000000   F   F   F
  0.4926145415739627  0.4934184034272932  0.1986734033318096   T   T   T
  0.6666700243881039  0.3333300053544903  0.0980900004383471   F   F   F
  0.6636724577183529  0.3178242751528233  0.2948562283761421   T   T   T
  0.8333299756288497  0.5000000000056559  0.0000000000000000   F   F   F
  0.8262156143663987  0.4937377323956439  0.1968496844765616   T   T   T
  0.0000000000000000  0.6666700243881039  0.0980900004383471   F   F   F
  0.0086866093328894  0.6579901390802282  0.2937516322389362   T   T   T
  0.1666699945381183  0.8333299756288497  0.0000000000000000   F   F   F
  0.1729891369438430  0.8404529311756821  0.1968361778709231   T   T   T
  0.3333300053544903  0.6666700243881039  0.0980900004383471   F   F   F
  0.3374597528265509  0.6820086384765790  0.2929842409469901   T   T   T
  0.5000000000056559  0.8333299756288497  0.0000000000000000   F   F   F
  0.5064684422516182  0.8339497299613980  0.1945651960654622   T   T   T
  0.6666700243881039  0.6666700243881039  0.0980900004383471   F   F   F
  0.6651591065004262  0.6542581454387072  0.2930233027951035   T   T   T
  0.8333299756288497  0.8333299756288497  0.0000000000000000   F   F   F
  0.8428165491223490  0.8238610497471580  0.1967816720451767   T   T   T
  0.4636835532619481  0.2030063602848047  0.3530848130230885   T   T   T
 
  0.00000000E+00  0.00000000E+00  0.00000000E+00
  0.00000000E+00  0.00000000E+00  0.00000000E+00
  0.00000000E+00  0.00000000E+00  0.00000000E+00
  0.00000000E+00  0.00000000E+00  0.00000000E+00
  0.00000000E+00  0.00000000E+00  0.00000000E+00
  0.00000000E+00  0.00000000E+00  0.00000000E+00
  0.00000000E+00  0.00000000E+00  0.00000000E+00
  0.00000000E+00  0.00000000E+00  0.00000000E+00
  0.00000000E+00  0.00000000E+00  0.00000000E+00
  0.00000000E+00  0.00000000E+00  0.00000000E+00
  0.00000000E+00  0.00000000E+00  0.00000000E+00
  0.00000000E+00  0.00000000E+00  0.00000000E+00
  0.00000000E+00  0.00000000E+00  0.00000000E+00
  0.00000000E+00  0.00000000E+00  0.00000000E+00
  0.00000000E+00  0.00000000E+00  0.00000000E+00
  0.00000000E+00  0.00000000E+00  0.00000000E+00
  0.00000000E+00  0.00000000E+00  0.00000000E+00
  0.00000000E+00  0.00000000E+00  0.00000000E+00
  0.00000000E+00  0.00000000E+00  0.00000000E+00
  0.00000000E+00  0.00000000E+00  0.00000000E+00
  0.00000000E+00  0.00000000E+00  0.00000000E+00
  0.00000000E+00  0.00000000E+00  0.00000000E+00
  0.00000000E+00  0.00000000E+00  0.00000000E+00
  0.00000000E+00  0.00000000E+00  0.00000000E+00
  0.00000000E+00  0.00000000E+00  0.00000000E+00
  0.00000000E+00  0.00000000E+00  0.00000000E+00
  0.00000000E+00  0.00000000E+00  0.00000000E+00
  0.00000000E+00  0.00000000E+00  0.00000000E+00
  0.00000000E+00  0.00000000E+00  0.00000000E+00
  0.00000000E+00  0.00000000E+00  0.00000000E+00
  0.00000000E+00  0.00000000E+00  0.00000000E+00
  0.00000000E+00  0.00000000E+00  0.00000000E+00
  0.00000000E+00  0.00000000E+00  0.00000000E+00
  0.00000000E+00  0.00000000E+00  0.00000000E+00
  0.00000000E+00  0.00000000E+00  0.00000000E+00
  0.00000000E+00  0.00000000E+00  0.00000000E+00
  0.00000000E+00  0.00000000E+00  0.00000000E+00
