Cu Zr Cu O  C  H                        
   1.00000000000000     
     7.7216000556999997    0.0000000000000000    0.0000000000000000
    -3.8608000277999999    6.6871018061000003    0.0000000000000000
     0.0000000000000000    0.0000000000000000   21.3047008513999998
   Cu   Zr   Cu   O    C    H 
    17     1    18     1     1     4
Selective dynamics
Direct
  0.0000000000000000  0.0000000000000000  0.0000000000000000   F   F   F
  0.0030364283744800  0.0026416132950152  0.2930617993929391   T   T   T
  0.2263128552419456  0.1160241820401028  0.1985335113992465   T   T   T
  0.1111100017667752  0.2222200035364281  0.0986400023008045   F   F   F
  0.3333300053659229  0.0000000000000000  0.0000000000000000   F   F   F
  0.3392897376099869  0.0026429432303799  0.2946637048826015   T   T   T
  0.5570232377278357  0.1115564279566485  0.1961896036031465   T   T   T
  0.4444400071326982  0.2222200035364281  0.0986400023008045   F   F   F
  0.6666700243299957  0.0000000000000000  0.0000000000000000   F   F   F
  0.6718335270487658  0.0046325219023616  0.2948902652709198   T   T   T
  0.8904706620859030  0.1133668722409621  0.1970367466079573   T   T   T
  0.7777799963101941  0.2222200035364281  0.0986400023008045   F   F   F
  0.0000000000045830  0.3333300053794161  0.0000000000000000   F   F   F
  0.0074345247060961  0.3369407716611747  0.2966196963179986   T   T   T
  0.2263227683059697  0.4440148254324269  0.1994153800813824   T   T   T
  0.1111100017242208  0.5555599927626460  0.0986400023008045   F   F   F
  0.3333300053705130  0.3333300053794161  0.0000000000000000   F   F   F
  0.3395765830844552  0.3323214702856259  0.3486946880768909   T   T   T
  0.5530968983238778  0.4446968398251638  0.2021099214857769   T   T   T
  0.4444400072196544  0.5555599927626460  0.0986400023008045   F   F   F
  0.6666700243345787  0.3333300053794161  0.0000000000000000   F   F   F
  0.6711708785724502  0.3292697093154280  0.2952174736109357   T   T   T
  0.8898483926185951  0.4451335292652079  0.1968511803433876   T   T   T
  0.7777799963971503  0.5555599927626460  0.0986400023008045   F   F   F
  0.9999999999481375  0.6666700243644144  0.0000000000000000   F   F   F
  0.0033682634944992  0.6682443530106528  0.2949204318943864   T   T   T
  0.2221940305984234  0.7785245763860266  0.1960502113310452   T   T   T
  0.1111100017896831  0.8888900280503833  0.0986400023008045   F   F   F
  0.3333300054435711  0.6666700243644144  0.0000000000000000   F   F   F
  0.3311267894540528  0.6695787169164493  0.2950000636537740   T   T   T
  0.5574095252840008  0.7773767477421066  0.1989380639663945   T   T   T
  0.4444400072851167  0.8888900280503833  0.0986400023008045   F   F   F
  0.6666700244076367  0.6666700243644144  0.0000000000000000   F   F   F
  0.6698800250737683  0.6701582816790492  0.3019084582398741   T   T   T
  0.8851868277409896  0.7744315830261288  0.1982806658564122   T   T   T
  0.7777799964626126  0.8888900280503833  0.0986400023008045   F   F   F
  0.2325792352414576  0.1902533837648550  0.4279373146886855   T   T   T
  0.5943975042033209  0.6154363763010985  0.4029480354395925   T   T   T
  0.7239304999049070  0.7668924540304701  0.4034448313194562   T   T   T
  0.4746094131525386  0.6271555494576103  0.4273965841556832   T   T   T
  0.6351044884132949  0.5222141215028989  0.4314046389400822   T   T   T
  0.1652659002822058  0.0680426166509133  0.4515138962116692   T   T   T
 
  0.00000000E+00  0.00000000E+00  0.00000000E+00
  0.00000000E+00  0.00000000E+00  0.00000000E+00
  0.00000000E+00  0.00000000E+00  0.00000000E+00
  0.00000000E+00  0.00000000E+00  0.00000000E+00
  0.00000000E+00  0.00000000E+00  0.00000000E+00
  0.00000000E+00  0.00000000E+00  0.00000000E+00
  0.00000000E+00  0.00000000E+00  0.00000000E+00
  0.00000000E+00  0.00000000E+00  0.00000000E+00
  0.00000000E+00  0.00000000E+00  0.00000000E+00
  0.00000000E+00  0.00000000E+00  0.00000000E+00
  0.00000000E+00  0.00000000E+00  0.00000000E+00
  0.00000000E+00  0.00000000E+00  0.00000000E+00
  0.00000000E+00  0.00000000E+00  0.00000000E+00
  0.00000000E+00  0.00000000E+00  0.00000000E+00
  0.00000000E+00  0.00000000E+00  0.00000000E+00
  0.00000000E+00  0.00000000E+00  0.00000000E+00
  0.00000000E+00  0.00000000E+00  0.00000000E+00
  0.00000000E+00  0.00000000E+00  0.00000000E+00
  0.00000000E+00  0.00000000E+00  0.00000000E+00
  0.00000000E+00  0.00000000E+00  0.00000000E+00
  0.00000000E+00  0.00000000E+00  0.00000000E+00
  0.00000000E+00  0.00000000E+00  0.00000000E+00
  0.00000000E+00  0.00000000E+00  0.00000000E+00
  0.00000000E+00  0.00000000E+00  0.00000000E+00
  0.00000000E+00  0.00000000E+00  0.00000000E+00
  0.00000000E+00  0.00000000E+00  0.00000000E+00
  0.00000000E+00  0.00000000E+00  0.00000000E+00
  0.00000000E+00  0.00000000E+00  0.00000000E+00
  0.00000000E+00  0.00000000E+00  0.00000000E+00
  0.00000000E+00  0.00000000E+00  0.00000000E+00
  0.00000000E+00  0.00000000E+00  0.00000000E+00
  0.00000000E+00  0.00000000E+00  0.00000000E+00
  0.00000000E+00  0.00000000E+00  0.00000000E+00
  0.00000000E+00  0.00000000E+00  0.00000000E+00
  0.00000000E+00  0.00000000E+00  0.00000000E+00
  0.00000000E+00  0.00000000E+00  0.00000000E+00
  0.00000000E+00  0.00000000E+00  0.00000000E+00
  0.00000000E+00  0.00000000E+00  0.00000000E+00
  0.00000000E+00  0.00000000E+00  0.00000000E+00
  0.00000000E+00  0.00000000E+00  0.00000000E+00
  0.00000000E+00  0.00000000E+00  0.00000000E+00
  0.00000000E+00  0.00000000E+00  0.00000000E+00
