Cu Zr Cu O  C  H                        
   1.00000000000000     
     7.7216000556999997    0.0000000000000000    0.0000000000000000
    -3.8608000277999999    6.6871018061000003    0.0000000000000000
     0.0000000000000000    0.0000000000000000   21.3047008513999998
   Cu   Zr   Cu   O    C    H 
    17     1    18     1     1     4
Selective dynamics
Direct
     0.0000000000000000    0.0000000000000000    0.0000000000000000   F   F   F
     0.9896878113387616    0.9890991682876936    0.3004891939484029   T   T   T
     0.2238123450210297    0.1127297302900627    0.2026664235037949   T   T   T
     0.1111100017667752    0.2222200035364281    0.0986400023008045   F   F   F
     0.3333300053659229    0.0000000000000000    0.0000000000000000   F   F   F
     0.3351854353576207    0.9883363297617811    0.3005913863428646   T   T   T
     0.5526401383161988    0.1068907540816077    0.1986397920278597   T   T   T
     0.4444400071326982    0.2222200035364281    0.0986400023008045   F   F   F
     0.6666700243299957    0.0000000000000000    0.0000000000000000   F   F   F
     0.6664046521009453    0.9963255398230400    0.2970464604587214   T   T   T
     0.8893059946794538    0.1071994882808703    0.1983703242927622   T   T   T
     0.7777799963101941    0.2222200035364281    0.0986400023008045   F   F   F
     0.0000000000045830    0.3333300053794161    0.0000000000000000   F   F   F
     0.9964964497003334    0.3322564995132738    0.2939082276363156   T   T   T
     0.2241041780583749    0.4407855316869708    0.1988042921851658   T   T   T
     0.1111100017242208    0.5555599927626460    0.0986400023008045   F   F   F
     0.3333300053705130    0.3333300053794161    0.0000000000000000   F   F   F
     0.3339571483748440    0.3315720981040903    0.3300736232099090   T   T   T
     0.5513575516442908    0.4407841210320372    0.1990496806567725   T   T   T
     0.4444400072196544    0.5555599927626460    0.0986400023008045   F   F   F
     0.6666700243345787    0.3333300053794161    0.0000000000000000   F   F   F
     0.6717867842494333    0.3320381066085013    0.2940907235783866   T   T   T
     0.8887718723847073    0.4425785216780559    0.1951103826159889   T   T   T
     0.7777799963971503    0.5555599927626460    0.0986400023008045   F   F   F
     0.9999999999481375    0.6666700243644144    0.0000000000000000   F   F   F
     0.9969298412384214    0.6579455006015229    0.2947826980404969   T   T   T
     0.2213717079088680    0.7779561718516024    0.1975636641715920   T   T   T
     0.1111100017896831    0.8888900280503833    0.0986400023008045   F   F   F
     0.3333300054435711    0.6666700243644144    0.0000000000000000   F   F   F
     0.3339134975916236    0.6709037362083318    0.2946141326470887   T   T   T
     0.5546463164044854    0.7750109209138465    0.1967180178136272   T   T   T
     0.4444400072851167    0.8888900280503833    0.0986400023008045   F   F   F
     0.6666700244076367    0.6666700243644144    0.0000000000000000   F   F   F
     0.6730922259755101    0.6706575158028580    0.2947427991667361   T   T   T
     0.8913083225821042    0.7778634170539374    0.1974505724104947   T   T   T
     0.7777799964626126    0.8888900280503833    0.0986400023008045   F   F   F
     0.2116221400590970    0.0875690182035026    0.3743763723523610   T   T   T
     0.9672471918415515    0.3476438289420711    0.4789151519227708   T   T   T
     0.9151663521250961    0.4195844227668877    0.4458511891854124   T   T   T
     0.8559300269900890    0.2739016878101218    0.5157292879262023   T   T   T
     0.1079124918455748    0.4603078421618149    0.4999021039884591   T   T   T
     0.9892874389408600    0.2360687106160464    0.4543814152073874   T   T   T
 
  0.00000000E+00  0.00000000E+00  0.00000000E+00
  0.00000000E+00  0.00000000E+00  0.00000000E+00
  0.00000000E+00  0.00000000E+00  0.00000000E+00
  0.00000000E+00  0.00000000E+00  0.00000000E+00
  0.00000000E+00  0.00000000E+00  0.00000000E+00
  0.00000000E+00  0.00000000E+00  0.00000000E+00
  0.00000000E+00  0.00000000E+00  0.00000000E+00
  0.00000000E+00  0.00000000E+00  0.00000000E+00
  0.00000000E+00  0.00000000E+00  0.00000000E+00
  0.00000000E+00  0.00000000E+00  0.00000000E+00
  0.00000000E+00  0.00000000E+00  0.00000000E+00
  0.00000000E+00  0.00000000E+00  0.00000000E+00
  0.00000000E+00  0.00000000E+00  0.00000000E+00
  0.00000000E+00  0.00000000E+00  0.00000000E+00
  0.00000000E+00  0.00000000E+00  0.00000000E+00
  0.00000000E+00  0.00000000E+00  0.00000000E+00
  0.00000000E+00  0.00000000E+00  0.00000000E+00
  0.00000000E+00  0.00000000E+00  0.00000000E+00
  0.00000000E+00  0.00000000E+00  0.00000000E+00
  0.00000000E+00  0.00000000E+00  0.00000000E+00
  0.00000000E+00  0.00000000E+00  0.00000000E+00
  0.00000000E+00  0.00000000E+00  0.00000000E+00
  0.00000000E+00  0.00000000E+00  0.00000000E+00
  0.00000000E+00  0.00000000E+00  0.00000000E+00
  0.00000000E+00  0.00000000E+00  0.00000000E+00
  0.00000000E+00  0.00000000E+00  0.00000000E+00
  0.00000000E+00  0.00000000E+00  0.00000000E+00
  0.00000000E+00  0.00000000E+00  0.00000000E+00
  0.00000000E+00  0.00000000E+00  0.00000000E+00
  0.00000000E+00  0.00000000E+00  0.00000000E+00
  0.00000000E+00  0.00000000E+00  0.00000000E+00
  0.00000000E+00  0.00000000E+00  0.00000000E+00
  0.00000000E+00  0.00000000E+00  0.00000000E+00
  0.00000000E+00  0.00000000E+00  0.00000000E+00
  0.00000000E+00  0.00000000E+00  0.00000000E+00
  0.00000000E+00  0.00000000E+00  0.00000000E+00
  0.00000000E+00  0.00000000E+00  0.00000000E+00
  0.00000000E+00  0.00000000E+00  0.00000000E+00
  0.00000000E+00  0.00000000E+00  0.00000000E+00
  0.00000000E+00  0.00000000E+00  0.00000000E+00
  0.00000000E+00  0.00000000E+00  0.00000000E+00
  0.00000000E+00  0.00000000E+00  0.00000000E+00
