Au In Au O  C  H                        
   1.00000000000000     
    12.5100002288999992    0.0000000000000000    0.0000000000000000
     0.0000000000000000    8.8458995818999995    0.0000000000000000
     0.0000000000000000    0.0000000000000000   19.4230003356999994
   Au   In   Au   O    C    H 
    17     1    18     1     1     4
Selective dynamics
Direct
     0.0000000000000000    0.0000000000000000    0.0759100019830612   F   F   F
     0.9985930155591795    0.9933560969440753    0.2265084060199826   T   T   T
     0.1664514130588927    0.1676744056467866    0.1593047497613439   T   T   T
     0.1666699946322368    0.1666699945381183    0.0000000000000000   F   F   F
     0.3333300054117316    0.0000000000000000    0.0759100019830612   F   F   F
     0.3278191240492573    0.0032549299192470    0.2319738785120111   T   T   T
     0.4923787517588715    0.1709841496747108    0.1607643282563321   T   T   T
     0.4999999999640323    0.1666699945381183    0.0000000000000000   F   F   F
     0.6666700244124115    0.0000000000000000    0.0759100019830612   F   F   F
     0.6620564449048770    0.0039915718052664    0.2299005832445418   T   T   T
     0.8314032128753920    0.1653687842968822    0.1593479978272110   T   T   T
     0.8333299756395505    0.1666699945381183    0.0000000000000000   F   F   F
     0.0000000000000000    0.3333300053544903    0.0759100019830612   F   F   F
     0.9886990810669991    0.3341637696465891    0.2320682921652359   T   T   T
     0.1782268881564540    0.4906112867420451    0.1680772475195519   T   T   T
     0.1666699946322368    0.5000000000056559    0.0000000000000000   F   F   F
     0.3333300054117316    0.3333300053544903    0.0759100019830612   F   F   F
     0.2552418766101259    0.2849985578683171    0.2843522735953030   T   T   T
     0.4910602182321734    0.4968133023120697    0.1607644829467508   T   T   T
     0.4999999999640323    0.5000000000056559    0.0000000000000000   F   F   F
     0.6666700244124115    0.3333300053544903    0.0759100019830612   F   F   F
     0.6611816057009535    0.3332468324704193    0.2286710405201061   T   T   T
     0.8312602466010409    0.4992677725235193    0.1597947039431561   T   T   T
     0.8333299756395505    0.5000000000056559    0.0000000000000000   F   F   F
     0.0000000000000000    0.6666700243881039    0.0759100019830612   F   F   F
     0.0018926232358805    0.6637792069089157    0.2268865397853184   T   T   T
     0.1661695758056428    0.8280711340235550    0.1576979919900386   T   T   T
     0.1666699946322368    0.8333299756288497    0.0000000000000000   F   F   F
     0.3333300054117316    0.6666700243881039    0.0759100019830612   F   F   F
     0.3350568685494063    0.6775699056894990    0.2301855627053871   T   T   T
     0.4979015687200634    0.8384900582280930    0.1596622177073271   T   T   T
     0.4999999999640323    0.8333299756288497    0.0000000000000000   F   F   F
     0.6666700244124115    0.6666700243881039    0.0759100019830612   F   F   F
     0.6583353905034324    0.6641685241092424    0.2286017795957946   T   T   T
     0.8279562957594253    0.8307828813573213    0.1622322142342480   T   T   T
     0.8333299756395505    0.8333299756288497    0.0000000000000000   F   F   F
     0.0959029632555090    0.2852576934540564    0.3283918799166774   T   T   T
     0.3692370139448307    0.3638775421843204    0.3632141164388119   T   T   T
     0.4488194598562952    0.3691029987766474    0.3405050975940708   T   T   T
     0.3449135374562401    0.4745103064574231    0.3826182335877705   T   T   T
     0.3671301400440274    0.2799156553034028    0.4044813857655908   T   T   T
     0.0842887457401257    0.3576514048285839    0.3651391596047066   T   T   T
 
  0.00000000E+00  0.00000000E+00  0.00000000E+00
  0.00000000E+00  0.00000000E+00  0.00000000E+00
  0.00000000E+00  0.00000000E+00  0.00000000E+00
  0.00000000E+00  0.00000000E+00  0.00000000E+00
  0.00000000E+00  0.00000000E+00  0.00000000E+00
  0.00000000E+00  0.00000000E+00  0.00000000E+00
  0.00000000E+00  0.00000000E+00  0.00000000E+00
  0.00000000E+00  0.00000000E+00  0.00000000E+00
  0.00000000E+00  0.00000000E+00  0.00000000E+00
  0.00000000E+00  0.00000000E+00  0.00000000E+00
  0.00000000E+00  0.00000000E+00  0.00000000E+00
  0.00000000E+00  0.00000000E+00  0.00000000E+00
  0.00000000E+00  0.00000000E+00  0.00000000E+00
  0.00000000E+00  0.00000000E+00  0.00000000E+00
  0.00000000E+00  0.00000000E+00  0.00000000E+00
  0.00000000E+00  0.00000000E+00  0.00000000E+00
  0.00000000E+00  0.00000000E+00  0.00000000E+00
  0.00000000E+00  0.00000000E+00  0.00000000E+00
  0.00000000E+00  0.00000000E+00  0.00000000E+00
  0.00000000E+00  0.00000000E+00  0.00000000E+00
  0.00000000E+00  0.00000000E+00  0.00000000E+00
  0.00000000E+00  0.00000000E+00  0.00000000E+00
  0.00000000E+00  0.00000000E+00  0.00000000E+00
  0.00000000E+00  0.00000000E+00  0.00000000E+00
  0.00000000E+00  0.00000000E+00  0.00000000E+00
  0.00000000E+00  0.00000000E+00  0.00000000E+00
  0.00000000E+00  0.00000000E+00  0.00000000E+00
  0.00000000E+00  0.00000000E+00  0.00000000E+00
  0.00000000E+00  0.00000000E+00  0.00000000E+00
  0.00000000E+00  0.00000000E+00  0.00000000E+00
  0.00000000E+00  0.00000000E+00  0.00000000E+00
  0.00000000E+00  0.00000000E+00  0.00000000E+00
  0.00000000E+00  0.00000000E+00  0.00000000E+00
  0.00000000E+00  0.00000000E+00  0.00000000E+00
  0.00000000E+00  0.00000000E+00  0.00000000E+00
  0.00000000E+00  0.00000000E+00  0.00000000E+00
  0.00000000E+00  0.00000000E+00  0.00000000E+00
  0.00000000E+00  0.00000000E+00  0.00000000E+00
  0.00000000E+00  0.00000000E+00  0.00000000E+00
  0.00000000E+00  0.00000000E+00  0.00000000E+00
  0.00000000E+00  0.00000000E+00  0.00000000E+00
  0.00000000E+00  0.00000000E+00  0.00000000E+00
