Ag Hf Ag O  C  H                        
   1.00000000000000     
    12.4799995421999999    0.0000000000000000    0.0000000000000000
     0.0000000000000000    8.8247003554999992    0.0000000000000000
     0.0000000000000000    0.0000000000000000   19.4123001098999985
   Ag   Hf   Ag   O    C    H 
    16     1    19     1     1     4
Selective dynamics
Direct
     0.0012902673354036    0.0013467790502637    0.2304978833781175   T   T   T
     0.1674361694475012    0.1670611766295813    0.1586207959016088   T   T   T
     0.1666699945754431    0.1666699946455736    0.0000000000000000   F   F   F
     0.0000000000000000    0.0000000000000000    0.0757699981286564   F   F   F
     0.3333652824684890    0.0043022144787902    0.2329076297177992   T   T   T
     0.4991016848272556    0.1669907696925469    0.1584967055523121   T   T   T
     0.4999999999919851    0.1666699946455736    0.0000000000000000   F   F   F
     0.3333300054165420    0.0000000000000000    0.0757699981286564   F   F   F
     0.6650351032823065    0.0015532173934472    0.2304773733946517   T   T   T
     0.8332104211932804    0.1679405524888583    0.1587829618872530   T   T   T
     0.8333299756008401    0.1666699946455736    0.0000000000000000   F   F   F
     0.6666700243751222    0.0000000000000000    0.0757699981286564   F   F   F
     0.0036215103790884    0.3347854944677326    0.2300314318652326   T   T   T
     0.1692584561615504    0.5009130512553512    0.1569801333050325   T   T   T
     0.1666699945754431    0.5000000000283293    0.0000000000000000   F   F   F
     0.0000000000000000    0.3333300053827557    0.0757699981286564   F   F   F
     0.3332065349214535    0.3392828007307857    0.2396921355210214   T   T   T
     0.4975137489563865    0.5009354416423720    0.1570248066618639   T   T   T
     0.4999999999919851    0.5000000000283293    0.0000000000000000   F   F   F
     0.3333300054165420    0.3333300053827557    0.0757699981286564   F   F   F
     0.6626442290965751    0.3345802218636740    0.2300729607154144   T   T   T
     0.8331405029171249    0.4994540461784031    0.1582594637394140   T   T   T
     0.8333299756008401    0.5000000000283293    0.0000000000000000   F   F   F
     0.6666700243751222    0.3333300053827557    0.0757699981286564   F   F   F
     0.0018366761665719    0.6673222260403382    0.2291997866689625   T   T   T
     0.1684022181558581    0.8349366834607143    0.1575698539857818   T   T   T
     0.1666699945754431    0.8333299756083719    0.0000000000000000   F   F   F
     0.0000000000000000    0.6666700243632988    0.0757699981286564   F   F   F
     0.3332327647471051    0.6739180149415407    0.2340012362970628   T   T   T
     0.4984577450369613    0.8346257754253542    0.1575100109362080   T   T   T
     0.4999999999919851    0.8333299756083719    0.0000000000000000   F   F   F
     0.3333300054165420    0.6666700243632988    0.0757699981286564   F   F   F
     0.6646016973291432    0.6669878116649938    0.2295065707919888   T   T   T
     0.8330954712800531    0.8342728718270697    0.1581214933131638   T   T   T
     0.8333299756008401    0.8333299756083719    0.0000000000000000   F   F   F
     0.6666700243751222    0.6666700243632988    0.0757699981286564   F   F   F
     0.3319921646659663    0.4363057342471880    0.3200084873973836   T   T   T
     0.3336757053097336    0.3091371905785273    0.4884439988566264   T   T   T
     0.3338774018140954    0.2182113219178207    0.4503658793803053   T   T   T
     0.4048708630672994    0.3002369559040191    0.5207920359766701   T   T   T
     0.2623748570595804    0.2998597156952966    0.5206627632418128   T   T   T
     0.3335832180966276    0.4171080962576935    0.4612787862471205   T   T   T
 
  0.00000000E+00  0.00000000E+00  0.00000000E+00
  0.00000000E+00  0.00000000E+00  0.00000000E+00
  0.00000000E+00  0.00000000E+00  0.00000000E+00
  0.00000000E+00  0.00000000E+00  0.00000000E+00
  0.00000000E+00  0.00000000E+00  0.00000000E+00
  0.00000000E+00  0.00000000E+00  0.00000000E+00
  0.00000000E+00  0.00000000E+00  0.00000000E+00
  0.00000000E+00  0.00000000E+00  0.00000000E+00
  0.00000000E+00  0.00000000E+00  0.00000000E+00
  0.00000000E+00  0.00000000E+00  0.00000000E+00
  0.00000000E+00  0.00000000E+00  0.00000000E+00
  0.00000000E+00  0.00000000E+00  0.00000000E+00
  0.00000000E+00  0.00000000E+00  0.00000000E+00
  0.00000000E+00  0.00000000E+00  0.00000000E+00
  0.00000000E+00  0.00000000E+00  0.00000000E+00
  0.00000000E+00  0.00000000E+00  0.00000000E+00
  0.00000000E+00  0.00000000E+00  0.00000000E+00
  0.00000000E+00  0.00000000E+00  0.00000000E+00
  0.00000000E+00  0.00000000E+00  0.00000000E+00
  0.00000000E+00  0.00000000E+00  0.00000000E+00
  0.00000000E+00  0.00000000E+00  0.00000000E+00
  0.00000000E+00  0.00000000E+00  0.00000000E+00
  0.00000000E+00  0.00000000E+00  0.00000000E+00
  0.00000000E+00  0.00000000E+00  0.00000000E+00
  0.00000000E+00  0.00000000E+00  0.00000000E+00
  0.00000000E+00  0.00000000E+00  0.00000000E+00
  0.00000000E+00  0.00000000E+00  0.00000000E+00
  0.00000000E+00  0.00000000E+00  0.00000000E+00
  0.00000000E+00  0.00000000E+00  0.00000000E+00
  0.00000000E+00  0.00000000E+00  0.00000000E+00
  0.00000000E+00  0.00000000E+00  0.00000000E+00
  0.00000000E+00  0.00000000E+00  0.00000000E+00
  0.00000000E+00  0.00000000E+00  0.00000000E+00
  0.00000000E+00  0.00000000E+00  0.00000000E+00
  0.00000000E+00  0.00000000E+00  0.00000000E+00
  0.00000000E+00  0.00000000E+00  0.00000000E+00
  0.00000000E+00  0.00000000E+00  0.00000000E+00
  0.00000000E+00  0.00000000E+00  0.00000000E+00
  0.00000000E+00  0.00000000E+00  0.00000000E+00
  0.00000000E+00  0.00000000E+00  0.00000000E+00
  0.00000000E+00  0.00000000E+00  0.00000000E+00
  0.00000000E+00  0.00000000E+00  0.00000000E+00
