Ru  C  H  O                             
   1.00000000000000     
     8.1970996856999996    0.0000000000000000    0.0000000000000000
     0.0000000000000000    8.6155004501000008    0.0000000000000000
     0.0000000000000000    0.0000000000000000   21.3101005553999983
   Ru   C    H    O 
    36     1     4     1
Selective dynamics
Direct
  0.0979899987554447  0.0000000000000000  0.0740299969912712   F   F   F
  0.2666273946638192 -0.0000066184086478  0.1822668542425664   T   T   T
  0.0982434116364478 -0.0000036898936622  0.2887559254977892   T   T   T
  0.0979899987554447  0.2500000000551310  0.0000000000000000   F   F   F
  0.2646600007542474  0.2500000000551310  0.1110400035817918   F   F   F
  0.0979842143442540  0.2503592832529400  0.2211972608920484   T   T   T
  0.4313299954333871  0.0000000000000000  0.0740299969912712   F   F   F
  0.5981536704308231 -0.0000079602323997  0.1838020714205232   T   T   T
  0.4188321258661147  0.0000067723511277  0.2893771199064651   T   T   T
  0.4313299954333871  0.2500000000551310  0.0000000000000000   F   F   F
  0.5979899764487726  0.2500000000551310  0.1110400035817918   F   F   F
  0.4290902801655979  0.2513172246505030  0.2221013615257129   T   T   T
  0.7646600007725439  0.0000000000000000  0.0740299969912712   F   F   F
  0.9295150473076075 -0.0000122892213853  0.1821362053309400   T   T   T
  0.7772546980526515 -0.0000018536817815  0.2893717220846416   T   T   T
  0.7646600007725439  0.2500000000551310  0.0000000000000000   F   F   F
  0.9313300252183154  0.2500000000551310  0.1110400035817918   F   F   F
  0.7676531370987331  0.2513101363692508  0.2221375522284242   T   T   T
  0.0979899987554447  0.4999999999941949  0.0740299969912712   F   F   F
  0.2643876071982627  0.5000059260289061  0.1816328432600826   T   T   T
  0.0958206523046405  0.5000049737106236  0.2880119503470797   T   T   T
  0.0979899987554447  0.7500000000493330  0.0000000000000000   F   F   F
  0.2646600007542474  0.7500000000493330  0.1110400035817918   F   F   F
  0.0979821423775209  0.7496352919408289  0.2211999638843064   T   T   T
  0.4313299954333871  0.4999999999941949  0.0740299969912712   F   F   F
  0.5975034698888296  0.5000019276120161  0.1829086879383645   T   T   T
  0.4238657678869612  0.4999950460395232  0.2923783455356989   T   T   T
  0.4313299954333871  0.7500000000493330  0.0000000000000000   F   F   F
  0.5979899764487726  0.7500000000493330  0.1110400035817918   F   F   F
  0.4290953463403775  0.7486923365664285  0.2221013467763516   T   T   T
  0.7646600007725439  0.4999999999941949  0.0740299969912712   F   F   F
  0.9323297045852406  0.5000060817507362  0.1816142182127678   T   T   T
  0.7783998175534652  0.5000044026027961  0.2932147171811745   T   T   T
  0.7646600007725439  0.7500000000493330  0.0000000000000000   F   F   F
  0.9313300252183154  0.7500000000493330  0.1110400035817918   F   F   F
  0.7676491081717316  0.7486957046587875  0.2221359190365194   T   T   T
  0.1960018641771848  0.5001098284560590  0.4503328161464026   T   T   T
  0.1736344337027008  0.6040132383459201  0.4783120393781582   T   T   T
  0.1736545570964755  0.3962127838185386  0.4783064096464175   T   T   T
  0.3215338594592047  0.5001254391089399  0.4334382264293125   T   T   T
  0.1113216607177159  0.5001116513301845  0.4103993529046061   T   T   T
  0.6005325806822108  0.4999993776917483  0.3517853452923408   T   T   T
 
  0.00000000E+00  0.00000000E+00  0.00000000E+00
  0.00000000E+00  0.00000000E+00  0.00000000E+00
  0.00000000E+00  0.00000000E+00  0.00000000E+00
  0.00000000E+00  0.00000000E+00  0.00000000E+00
  0.00000000E+00  0.00000000E+00  0.00000000E+00
  0.00000000E+00  0.00000000E+00  0.00000000E+00
  0.00000000E+00  0.00000000E+00  0.00000000E+00
  0.00000000E+00  0.00000000E+00  0.00000000E+00
  0.00000000E+00  0.00000000E+00  0.00000000E+00
  0.00000000E+00  0.00000000E+00  0.00000000E+00
  0.00000000E+00  0.00000000E+00  0.00000000E+00
  0.00000000E+00  0.00000000E+00  0.00000000E+00
  0.00000000E+00  0.00000000E+00  0.00000000E+00
  0.00000000E+00  0.00000000E+00  0.00000000E+00
  0.00000000E+00  0.00000000E+00  0.00000000E+00
  0.00000000E+00  0.00000000E+00  0.00000000E+00
  0.00000000E+00  0.00000000E+00  0.00000000E+00
  0.00000000E+00  0.00000000E+00  0.00000000E+00
  0.00000000E+00  0.00000000E+00  0.00000000E+00
  0.00000000E+00  0.00000000E+00  0.00000000E+00
  0.00000000E+00  0.00000000E+00  0.00000000E+00
  0.00000000E+00  0.00000000E+00  0.00000000E+00
  0.00000000E+00  0.00000000E+00  0.00000000E+00
  0.00000000E+00  0.00000000E+00  0.00000000E+00
  0.00000000E+00  0.00000000E+00  0.00000000E+00
  0.00000000E+00  0.00000000E+00  0.00000000E+00
  0.00000000E+00  0.00000000E+00  0.00000000E+00
  0.00000000E+00  0.00000000E+00  0.00000000E+00
  0.00000000E+00  0.00000000E+00  0.00000000E+00
  0.00000000E+00  0.00000000E+00  0.00000000E+00
  0.00000000E+00  0.00000000E+00  0.00000000E+00
  0.00000000E+00  0.00000000E+00  0.00000000E+00
  0.00000000E+00  0.00000000E+00  0.00000000E+00
  0.00000000E+00  0.00000000E+00  0.00000000E+00
  0.00000000E+00  0.00000000E+00  0.00000000E+00
  0.00000000E+00  0.00000000E+00  0.00000000E+00
  0.00000000E+00  0.00000000E+00  0.00000000E+00
  0.00000000E+00  0.00000000E+00  0.00000000E+00
  0.00000000E+00  0.00000000E+00  0.00000000E+00
  0.00000000E+00  0.00000000E+00  0.00000000E+00
  0.00000000E+00  0.00000000E+00  0.00000000E+00
  0.00000000E+00  0.00000000E+00  0.00000000E+00
