Ru O                                    
   1.00000000000000     
     8.1970996856999996    0.0000000000000000    0.0000000000000000
     0.0000000000000000    8.6155004501000008    0.0000000000000000
     0.0000000000000000    0.0000000000000000   21.3101005553999983
   Ru   O 
    36     1
Selective dynamics
Direct
  0.0979899987554447  0.0000000000000000  0.0740299969912712   F   F   F
  0.2665237042650564  0.0000080307229678  0.1822750392799060   T   T   T
  0.0980729535408822  0.9999916442416378  0.2886450101313105   T   T   T
  0.0979899987554447  0.2500000000551310  0.0000000000000000   F   F   F
  0.2646600007542474  0.2500000000551310  0.1110400035817918   F   F   F
  0.0980639240110305  0.2507340119848225  0.2212624571970902   T   T   T
  0.4313299954333871  0.0000000000000000  0.0740299969912712   F   F   F
  0.5980307326195470  0.0000059553863118  0.1839744820497176   T   T   T
  0.4200959613343817 -0.0000029144308962  0.2892472758220326   T   T   T
  0.4313299954333871  0.2500000000551310  0.0000000000000000   F   F   F
  0.5979899764487726  0.2500000000551310  0.1110400035817918   F   F   F
  0.4288243755096873  0.2516440255404930  0.2222349941835050   T   T   T
  0.7646600007725439  0.0000000000000000  0.0740299969912712   F   F   F
  0.9296251675901883 -0.0000003932693911  0.1822131449240919   T   T   T
  0.7759467719861141 -0.0000109181035644  0.2891928941183535   T   T   T
  0.7646600007725439  0.2500000000551310  0.0000000000000000   F   F   F
  0.9313300252183154  0.2500000000551310  0.1110400035817918   F   F   F
  0.7673992607540043  0.2514887579977246  0.2221348284196216   T   T   T
  0.0979899987554447  0.4999999999941949  0.0740299969912712   F   F   F
  0.2647316364762218  0.4999992392626261  0.1817787995089455   T   T   T
  0.0982830710971097  0.5000021942436125  0.2884983440164560   T   T   T
  0.0979899987554447  0.7500000000493330  0.0000000000000000   F   F   F
  0.2646600007542474  0.7500000000493330  0.1110400035817918   F   F   F
  0.0980639694541156  0.7492685060480878  0.2212496529274630   T   T   T
  0.4313299954333871  0.4999999999941949  0.0740299969912712   F   F   F
  0.5980588045963247  0.4999966886329705  0.1828691644669431   T   T   T
  0.4186354975509356  0.5000061978852490  0.2934673540181207   T   T   T
  0.4313299954333871  0.7500000000493330  0.0000000000000000   F   F   F
  0.5979899764487726  0.7500000000493330  0.1110400035817918   F   F   F
  0.4288257651745567  0.7483640193147675  0.2222204892046777   T   T   T
  0.7646600007725439  0.4999999999941949  0.0740299969912712   F   F   F
  0.9315049646135070  0.4999970112969742  0.1816700418351290   T   T   T
  0.7792950812882369  0.5000078533092496  0.2933242358335140   T   T   T
  0.7646600007725439  0.7500000000493330  0.0000000000000000   F   F   F
  0.9313300252183154  0.7500000000493330  0.1110400035817918   F   F   F
  0.7673951580329333  0.7485101952106945  0.2221285425195062   T   T   T
  0.5994009158974032  0.5000018773030959  0.3507324858633497   T   T   T
 
  0.00000000E+00  0.00000000E+00  0.00000000E+00
  0.00000000E+00  0.00000000E+00  0.00000000E+00
  0.00000000E+00  0.00000000E+00  0.00000000E+00
  0.00000000E+00  0.00000000E+00  0.00000000E+00
  0.00000000E+00  0.00000000E+00  0.00000000E+00
  0.00000000E+00  0.00000000E+00  0.00000000E+00
  0.00000000E+00  0.00000000E+00  0.00000000E+00
  0.00000000E+00  0.00000000E+00  0.00000000E+00
  0.00000000E+00  0.00000000E+00  0.00000000E+00
  0.00000000E+00  0.00000000E+00  0.00000000E+00
  0.00000000E+00  0.00000000E+00  0.00000000E+00
  0.00000000E+00  0.00000000E+00  0.00000000E+00
  0.00000000E+00  0.00000000E+00  0.00000000E+00
  0.00000000E+00  0.00000000E+00  0.00000000E+00
  0.00000000E+00  0.00000000E+00  0.00000000E+00
  0.00000000E+00  0.00000000E+00  0.00000000E+00
  0.00000000E+00  0.00000000E+00  0.00000000E+00
  0.00000000E+00  0.00000000E+00  0.00000000E+00
  0.00000000E+00  0.00000000E+00  0.00000000E+00
  0.00000000E+00  0.00000000E+00  0.00000000E+00
  0.00000000E+00  0.00000000E+00  0.00000000E+00
  0.00000000E+00  0.00000000E+00  0.00000000E+00
  0.00000000E+00  0.00000000E+00  0.00000000E+00
  0.00000000E+00  0.00000000E+00  0.00000000E+00
  0.00000000E+00  0.00000000E+00  0.00000000E+00
  0.00000000E+00  0.00000000E+00  0.00000000E+00
  0.00000000E+00  0.00000000E+00  0.00000000E+00
  0.00000000E+00  0.00000000E+00  0.00000000E+00
  0.00000000E+00  0.00000000E+00  0.00000000E+00
  0.00000000E+00  0.00000000E+00  0.00000000E+00
  0.00000000E+00  0.00000000E+00  0.00000000E+00
  0.00000000E+00  0.00000000E+00  0.00000000E+00
  0.00000000E+00  0.00000000E+00  0.00000000E+00
  0.00000000E+00  0.00000000E+00  0.00000000E+00
  0.00000000E+00  0.00000000E+00  0.00000000E+00
  0.00000000E+00  0.00000000E+00  0.00000000E+00
  0.00000000E+00  0.00000000E+00  0.00000000E+00
