Ru                                      
   1.00000000000000     
     8.1970996856999996    0.0000000000000000    0.0000000000000000
     0.0000000000000000    8.6155004501000008    0.0000000000000000
     0.0000000000000000    0.0000000000000000   21.3101005553999983
   Ru
    36
Selective dynamics
Direct
  0.0979899987554447  0.0000000000000000  0.0740299969912712   F   F   F
  0.2645771678911201  0.0000080355915928  0.1823631786283417   T   T   T
  0.0981210586304543 -0.0000022798715301  0.2886354094967726   T   T   T
  0.0979899987554447  0.2500000000551310  0.0000000000000000   F   F   F
  0.2646600007542474  0.2500000000551310  0.1110400035817918   F   F   F
  0.0980856861887588  0.2499806303060039  0.2223421763130833   T   T   T
  0.4313299954333871  0.0000000000000000  0.0740299969912712   F   F   F
  0.5979467620101454  0.0000031855782627  0.1823190934550645   T   T   T
  0.4312098518937657 -0.0000027352961978  0.2887063074464326   T   T   T
  0.4313299954333871  0.2500000000551310  0.0000000000000000   F   F   F
  0.5979899764487726  0.2500000000551310  0.1110400035817918   F   F   F
  0.4313056041229567  0.2499822291393568  0.2223344322605670   T   T   T
  0.7646600007725439  0.0000000000000000  0.0740299969912712   F   F   F
  0.9313706295551532  0.0000043934474066  0.1823058079189325   T   T   T
  0.7645789455434816 -0.0000017862617051  0.2886969941332568   T   T   T
  0.7646600007725439  0.2500000000551310  0.0000000000000000   F   F   F
  0.9313300252183154  0.2500000000551310  0.1110400035817918   F   F   F
  0.7647150062423765  0.2499487548302567  0.2223725491887642   T   T   T
  0.0979899987554447  0.4999999999941949  0.0740299969912712   F   F   F
  0.2645785356362010  0.4999940150416646  0.1823466176132185   T   T   T
  0.0981255570997951  0.5000044589194920  0.2885602717554862   T   T   T
  0.0979899987554447  0.7500000000493330  0.0000000000000000   F   F   F
  0.2646600007542474  0.7500000000493330  0.1110400035817918   F   F   F
  0.0980782208054273  0.7500202750804763  0.2223421465908139   T   T   T
  0.4313299954333871  0.4999999999941949  0.0740299969912712   F   F   F
  0.5979232151716654  0.4999983222906593  0.1822886755454138   T   T   T
  0.4312256060838496  0.4999881297074343  0.2886304252167799   T   T   T
  0.4313299954333871  0.7500000000493330  0.0000000000000000   F   F   F
  0.5979899764487726  0.7500000000493330  0.1110400035817918   F   F   F
  0.4313399010844823  0.7500099944174426  0.2223337372162188   T   T   T
  0.7646600007725439  0.4999999999941949  0.0740299969912712   F   F   F
  0.9313927969169539  0.4999972721968465  0.1822747015764968   T   T   T
  0.7645381561097132  0.5000031349095678  0.2886734299748791   T   T   T
  0.7646600007725439  0.7500000000493330  0.0000000000000000   F   F   F
  0.9313300252183154  0.7500000000493330  0.1110400035817918   F   F   F
  0.7647124181189551  0.7500521111582458  0.2223742732833387   T   T   T
 
  0.00000000E+00  0.00000000E+00  0.00000000E+00
  0.00000000E+00  0.00000000E+00  0.00000000E+00
  0.00000000E+00  0.00000000E+00  0.00000000E+00
  0.00000000E+00  0.00000000E+00  0.00000000E+00
  0.00000000E+00  0.00000000E+00  0.00000000E+00
  0.00000000E+00  0.00000000E+00  0.00000000E+00
  0.00000000E+00  0.00000000E+00  0.00000000E+00
  0.00000000E+00  0.00000000E+00  0.00000000E+00
  0.00000000E+00  0.00000000E+00  0.00000000E+00
  0.00000000E+00  0.00000000E+00  0.00000000E+00
  0.00000000E+00  0.00000000E+00  0.00000000E+00
  0.00000000E+00  0.00000000E+00  0.00000000E+00
  0.00000000E+00  0.00000000E+00  0.00000000E+00
  0.00000000E+00  0.00000000E+00  0.00000000E+00
  0.00000000E+00  0.00000000E+00  0.00000000E+00
  0.00000000E+00  0.00000000E+00  0.00000000E+00
  0.00000000E+00  0.00000000E+00  0.00000000E+00
  0.00000000E+00  0.00000000E+00  0.00000000E+00
  0.00000000E+00  0.00000000E+00  0.00000000E+00
  0.00000000E+00  0.00000000E+00  0.00000000E+00
  0.00000000E+00  0.00000000E+00  0.00000000E+00
  0.00000000E+00  0.00000000E+00  0.00000000E+00
  0.00000000E+00  0.00000000E+00  0.00000000E+00
  0.00000000E+00  0.00000000E+00  0.00000000E+00
  0.00000000E+00  0.00000000E+00  0.00000000E+00
  0.00000000E+00  0.00000000E+00  0.00000000E+00
  0.00000000E+00  0.00000000E+00  0.00000000E+00
  0.00000000E+00  0.00000000E+00  0.00000000E+00
  0.00000000E+00  0.00000000E+00  0.00000000E+00
  0.00000000E+00  0.00000000E+00  0.00000000E+00
  0.00000000E+00  0.00000000E+00  0.00000000E+00
  0.00000000E+00  0.00000000E+00  0.00000000E+00
  0.00000000E+00  0.00000000E+00  0.00000000E+00
  0.00000000E+00  0.00000000E+00  0.00000000E+00
  0.00000000E+00  0.00000000E+00  0.00000000E+00
  0.00000000E+00  0.00000000E+00  0.00000000E+00
