Ag Re Ag O  C  H 
 1.0000000000000000
     8.8247003554999992    0.0000000000000000    0.0000000000000000
    -4.4123501777999996    7.6424146886999997    0.0000000000000000
     0.0000000000000000    0.0000000000000000   22.2052993773999994
 Ag  Re  Ag  O   C   H  
  17   1  18   1   1   4
Selective dynamics
Cartesian
  0.0000000000000000  0.0000000000000000  0.0000000000000000   F   F   F
  0.0347287001607402  0.0789176172738979  7.2239181758447266   T   T   T
  1.4591357466127977  0.8379851315867302  4.7625379764646540   T   T   T
 -0.0000000000000122  1.6982974199999803  2.4017251040000338   F   F   F
  2.9415374170000210  0.0000000000000000  0.0000000000000000   F   F   F
  2.9101316911427877  0.0526134815626118  7.2089442187109372   T   T   T
  4.4128209528730036  0.8675679683382674  4.8151838486764005   T   T   T
  2.9415374170000090  1.6982974199999803  2.4017251040000338   F   F   F
  5.8831632009999959  0.0000000000000000  0.0000000000000000   F   F   F
  1.4604403233292511  7.6364293451957215  7.1854476683321193   T   T   T
  7.3376921882658435  0.8397544331865946  4.8012201423277281   T   T   T
  5.8831629380000328  1.6982974199999803  2.4017251040000338   F   F   F
  7.3539316464999738  2.5474461300000248  0.0000000000000000   F   F   F
 -1.3850557621991022  2.5380735122548201  7.2239100475609703   T   T   T
 -0.0154860054617424  3.3920999637481128  4.7625013514196350   T   T   T
 -1.4708127609999768  4.2458198490000063  2.4017251040000338   F   F   F
  1.4707687089999872  2.5474461300000248  0.0000000000000000   F   F   F
  1.4355496881121097  2.5271612966532095  6.9484814352791036   T   T   T
  2.9421691105274763  3.3969658009153241  4.8060572833868154   T   T   T
  1.4707246569999728  4.2458198490000063  2.4017251040000338   F   F   F
  4.4123944929999626  2.5474461300000248  0.0000000000000000   F   F   F
  4.3522665702346846  2.4424844598086008  7.2916095054273065   T   T   T
  5.8772237155477161  3.3965667718009498  4.8287639812127914   T   T   T
  4.4123501779999978  4.2458198490000063  2.4017251040000338   F   F   F
  5.8831187544999990  5.0949687869999831  0.0000000000000000   F   F   F
 -2.8176531685153332  5.1665012962035091  7.2746194596391316   T   T   T
 -1.4827237996538742  5.9372054078620993  4.8253246487680137   T   T   T
 -2.9415816009999816  6.7932662070000180  2.4017251040000338   F   F   F
 -0.0000441829999876  5.0949687869999831  0.0000000000000000   F   F   F
  0.0298179932103395  5.0414616812386734  7.2089091558549523   T   T   T
  1.4869480288152823  5.9352954237475970  4.8151208058903148   T   T   T
 -0.0000441830000319  6.7932662070000180  2.4017251040000338   F   F   F
  2.9415816009999869  5.0949687869999831  0.0000000000000000   F   F   F
  2.8205804473939113  5.0953044667535323  7.2916532304643935   T   T   T
  4.4093260836111856  5.9389714330755243  4.8287845204913440   T   T   T
  2.9415813379999922  6.7932662070000180  2.4017251040000338   F   F   F
  4.4438043259288573  4.2639121720463482  8.4239162573039756   T   T   T
  1.4355496881121095  2.5271612966532100  9.9484814352791027   T   T   T
  0.6650333519811462  2.0823203232669325  9.3193634352791541   T   T   T
  1.8803906614984476  1.7566449605222809 10.5775994352790512   T   T   T
  0.9907087147257652  3.2976776327841399 10.5775994352790512   T   T   T
  2.2060660242430794  2.9720022700394848  9.3193634352791541   T   T   T
