Ir  O                                   
   1.00000000000000     
    11.6400003433000006    0.0000000000000000    0.0000000000000000
     0.0000000000000000    8.2306995391999997    0.0000000000000000
     0.0000000000000000    0.0000000000000000   19.1154003143000004
   Ir   O 
    36     1
Selective dynamics
Direct
  0.0000000000000000  0.0000000000000000  0.0717599988201059   F   F   F
  0.9989610980530808  0.0000001339173492  0.2088690010942436   T   T   T
  0.1673408120530180  0.1687418462342740  0.1436721810284309   T   T   T
  0.1666699945689132  0.1666699946300483  0.0000000000000000   F   F   F
  0.3333300053752382  0.0000000000000000  0.0717599988201059   F   F   F
  0.3333356087257107 -0.0000002087725322  0.2087864431245006   T   T   T
  0.4993256343011384  0.1687446869514614  0.1436694025783696   T   T   T
  0.5000000000300702  0.1666699946300483  0.0000000000000000   F   F   F
  0.6666700244099815  0.0000000000000000  0.0717599988201059   F   F   F
  0.6677008390441745  0.0000005137435918  0.2088649287255365   T   T   T
  0.8333309843501047  0.1677487533373831  0.1425599594820506   T   T   T
  0.8333299755943173  0.1666699946300483  0.0000000000000000   F   F   F
  0.0000000000000000  0.3333300054185528  0.0717599988201059   F   F   F
  0.9998661650317028  0.3318317596519787  0.2091099079340963   T   T   T
  0.1639668209413963  0.5000018954031611  0.1408359527737942   T   T   T
  0.1666699945689132  0.5000000000486011  0.0000000000000000   F   F   F
  0.3333300053752382  0.3333300054185528  0.0717599988201059   F   F   F
  0.3333308127187601  0.3295789252549745  0.2128683633941131   T   T   T
  0.5026989176591818  0.5000016693744824  0.1408345055231102   T   T   T
  0.5000000000300702  0.5000000000486011  0.0000000000000000   F   F   F
  0.6666700244099815  0.3333300054185528  0.0717599988201059   F   F   F
  0.6667972089945101  0.3318325059022065  0.2091057000945742   T   T   T
  0.8333321454644397  0.5000012690148357  0.1431306750941707   T   T   T
  0.8333299755943173  0.5000000000486011  0.0000000000000000   F   F   F
  0.0000000000000000  0.6666700244452528  0.0717599988201059   F   F   F
 -0.0001332726164572  0.6681678039033314  0.2091088400913251   T   T   T
  0.1673390451259657  0.8312584707238450  0.1436704674538529   T   T   T
  0.1666699945689132  0.8333299755790478  0.0000000000000000   F   F   F
  0.3333300053752382  0.6666700244452528  0.0717599988201059   F   F   F
  0.3333308515385958  0.6704209160193433  0.2128705724328962   T   T   T
  0.4993268465042029  0.8312564021835261  0.1436684509226870   T   T   T
  0.5000000000300702  0.8333299755790478  0.0000000000000000   F   F   F
  0.6666700244099815  0.6666700244452528  0.0717599988201059   F   F   F
  0.6667969242900775  0.6681659251768988  0.2091051929633000   T   T   T
  0.8333305796763684  0.8322515761051206  0.1425606243088794   T   T   T
  0.8333299755943173  0.8333299755790478  0.0000000000000000   F   F   F
  0.3333229132520501  0.5000008792538393  0.2826790226452995   T   T   T
 
  0.00000000E+00  0.00000000E+00  0.00000000E+00
  0.00000000E+00  0.00000000E+00  0.00000000E+00
  0.00000000E+00  0.00000000E+00  0.00000000E+00
  0.00000000E+00  0.00000000E+00  0.00000000E+00
  0.00000000E+00  0.00000000E+00  0.00000000E+00
  0.00000000E+00  0.00000000E+00  0.00000000E+00
  0.00000000E+00  0.00000000E+00  0.00000000E+00
  0.00000000E+00  0.00000000E+00  0.00000000E+00
  0.00000000E+00  0.00000000E+00  0.00000000E+00
  0.00000000E+00  0.00000000E+00  0.00000000E+00
  0.00000000E+00  0.00000000E+00  0.00000000E+00
  0.00000000E+00  0.00000000E+00  0.00000000E+00
  0.00000000E+00  0.00000000E+00  0.00000000E+00
  0.00000000E+00  0.00000000E+00  0.00000000E+00
  0.00000000E+00  0.00000000E+00  0.00000000E+00
  0.00000000E+00  0.00000000E+00  0.00000000E+00
  0.00000000E+00  0.00000000E+00  0.00000000E+00
  0.00000000E+00  0.00000000E+00  0.00000000E+00
  0.00000000E+00  0.00000000E+00  0.00000000E+00
  0.00000000E+00  0.00000000E+00  0.00000000E+00
  0.00000000E+00  0.00000000E+00  0.00000000E+00
  0.00000000E+00  0.00000000E+00  0.00000000E+00
  0.00000000E+00  0.00000000E+00  0.00000000E+00
  0.00000000E+00  0.00000000E+00  0.00000000E+00
  0.00000000E+00  0.00000000E+00  0.00000000E+00
  0.00000000E+00  0.00000000E+00  0.00000000E+00
  0.00000000E+00  0.00000000E+00  0.00000000E+00
  0.00000000E+00  0.00000000E+00  0.00000000E+00
  0.00000000E+00  0.00000000E+00  0.00000000E+00
  0.00000000E+00  0.00000000E+00  0.00000000E+00
  0.00000000E+00  0.00000000E+00  0.00000000E+00
  0.00000000E+00  0.00000000E+00  0.00000000E+00
  0.00000000E+00  0.00000000E+00  0.00000000E+00
  0.00000000E+00  0.00000000E+00  0.00000000E+00
  0.00000000E+00  0.00000000E+00  0.00000000E+00
  0.00000000E+00  0.00000000E+00  0.00000000E+00
  0.00000000E+00  0.00000000E+00  0.00000000E+00
