Ir   C    H    O                        
   1.00000000000000     
    11.6400003433000006    0.0000000000000000    0.0000000000000000
     0.0000000000000000    8.2306995391999997    0.0000000000000000
     0.0000000000000000    0.0000000000000000   19.1154003143000004
   Ir   C    H    O 
    36     1     4     1
Selective dynamics
Direct
  0.0000000000000000  0.0000000000000000  0.0717599988201059   F   F   F
  1.0000109690017893  0.9995420345642950  0.2087920827014598   T   T   T
  0.1682851716475306  0.1694450774897454  0.1438218602148553   T   T   T
  0.1666699945689132  0.1666699946300483  0.0000000000000000   F   F   F
  0.3333300053752382  0.0000000000000000  0.0717599988201059   F   F   F
  0.3333016199675756  0.9961225029521480  0.2081661140506761   T   T   T
  0.4983495586473872  0.1694884169902167  0.1438551258860815   T   T   T
  0.5000000000300702  0.1666699946300483  0.0000000000000000   F   F   F
  0.6666700244099815  0.0000000000000000  0.0717599988201059   F   F   F
  0.6666849532519057  0.9995762081653891  0.2088025884888133   T   T   T
  0.8333354021726933  0.1668694234519535  0.1431199610280896   T   T   T
  0.8333299755943173  0.1666699946300483  0.0000000000000000   F   F   F
  0.0000000000000000  0.3333300054185528  0.0717599988201059   F   F   F
  0.9994402662983264  0.3329238983859186  0.2090031413567868   T   T   T
  0.1684458361926243  0.4988385506613092  0.1434416171418725   T   T   T
  0.1666699945689132  0.5000000000486011  0.0000000000000000   F   F   F
  0.3333300053752382  0.3333300054185528  0.0717599988201059   F   F   F
  0.3332995681022766  0.3295046590362814  0.2127348634828034   T   T   T
  0.4983003881128397  0.4988525562162901  0.1434587904748429   T   T   T
  0.5000000000300702  0.5000000000486011  0.0000000000000000   F   F   F
  0.6666700244099815  0.3333300054185528  0.0717599988201059   F   F   F
  0.6672564492562264  0.3328782513789544  0.2090150392158363   T   T   T
  0.8333426541743683  0.5000190536976903  0.1429896432495156   T   T   T
  0.8333299755943173  0.5000000000486011  0.0000000000000000   F   F   F
  0.0000000000000000  0.6666700244452528  0.0717599988201059   F   F   F
  0.9997439043760289  0.6676677979381881  0.2088268101344339   T   T   T
  0.1665222296539486  0.8319580408955786  0.1425098992707791   T   T   T
  0.1666699945689132  0.8333299755790478  0.0000000000000000   F   F   F
  0.3333300053752382  0.6666700244452528  0.0717599988201059   F   F   F
  0.3333967725904020  0.6730028540366088  0.2117661734775756   T   T   T
  0.5001915803395454  0.8319294661894121  0.1425255720369324   T   T   T
  0.5000000000300702  0.8333299755790478  0.0000000000000000   F   F   F
  0.6666700244099815  0.6666700244452528  0.0717599988201059   F   F   F
  0.6669926694798545  0.6676911808670964  0.2088264197798511   T   T   T
  0.8333448850760646  0.8332863497145315  0.1428652112904041   T   T   T
  0.8333299755943173  0.8333299755790478  0.0000000000000000   F   F   F
  0.3367187871225020  0.6684110120878128  0.3358173121839878   T   T   T
  0.4150258904422230  0.6475323450332022  0.3661587364163690   T   T   T
  0.2594078510677680  0.6522973637165211  0.3675894301627894   T   T   T
  0.3343838275042453  0.5185491393487822  0.3112377141942410   T   T   T
  0.3384887492963583  0.7976089017437296  0.3209455521870956   T   T   T
  0.3332601806589918  0.3591714297557407  0.3081862853895517   T   T   T
 
  0.00000000E+00  0.00000000E+00  0.00000000E+00
  0.00000000E+00  0.00000000E+00  0.00000000E+00
  0.00000000E+00  0.00000000E+00  0.00000000E+00
  0.00000000E+00  0.00000000E+00  0.00000000E+00
  0.00000000E+00  0.00000000E+00  0.00000000E+00
  0.00000000E+00  0.00000000E+00  0.00000000E+00
  0.00000000E+00  0.00000000E+00  0.00000000E+00
  0.00000000E+00  0.00000000E+00  0.00000000E+00
  0.00000000E+00  0.00000000E+00  0.00000000E+00
  0.00000000E+00  0.00000000E+00  0.00000000E+00
  0.00000000E+00  0.00000000E+00  0.00000000E+00
  0.00000000E+00  0.00000000E+00  0.00000000E+00
  0.00000000E+00  0.00000000E+00  0.00000000E+00
  0.00000000E+00  0.00000000E+00  0.00000000E+00
  0.00000000E+00  0.00000000E+00  0.00000000E+00
  0.00000000E+00  0.00000000E+00  0.00000000E+00
  0.00000000E+00  0.00000000E+00  0.00000000E+00
  0.00000000E+00  0.00000000E+00  0.00000000E+00
  0.00000000E+00  0.00000000E+00  0.00000000E+00
  0.00000000E+00  0.00000000E+00  0.00000000E+00
  0.00000000E+00  0.00000000E+00  0.00000000E+00
  0.00000000E+00  0.00000000E+00  0.00000000E+00
  0.00000000E+00  0.00000000E+00  0.00000000E+00
  0.00000000E+00  0.00000000E+00  0.00000000E+00
  0.00000000E+00  0.00000000E+00  0.00000000E+00
  0.00000000E+00  0.00000000E+00  0.00000000E+00
  0.00000000E+00  0.00000000E+00  0.00000000E+00
  0.00000000E+00  0.00000000E+00  0.00000000E+00
  0.00000000E+00  0.00000000E+00  0.00000000E+00
  0.00000000E+00  0.00000000E+00  0.00000000E+00
  0.00000000E+00  0.00000000E+00  0.00000000E+00
  0.00000000E+00  0.00000000E+00  0.00000000E+00
  0.00000000E+00  0.00000000E+00  0.00000000E+00
  0.00000000E+00  0.00000000E+00  0.00000000E+00
  0.00000000E+00  0.00000000E+00  0.00000000E+00
  0.00000000E+00  0.00000000E+00  0.00000000E+00
  0.00000000E+00  0.00000000E+00  0.00000000E+00
  0.00000000E+00  0.00000000E+00  0.00000000E+00
  0.00000000E+00  0.00000000E+00  0.00000000E+00
  0.00000000E+00  0.00000000E+00  0.00000000E+00
  0.00000000E+00  0.00000000E+00  0.00000000E+00
  0.00000000E+00  0.00000000E+00  0.00000000E+00
