Ag Cr Ag O                              
   1.00000000000000     
     8.8247003554999992    0.0000000000000000    0.0000000000000000
     0.0000000000000000    8.8247003554999992    0.0000000000000000
     0.0000000000000000    0.0000000000000000   21.2399997710999990
   Ag   Cr   Ag   O 
    17     1    18     1
Selective dynamics
Direct
     0.0000000000000000    0.0000000000000000    0.0979299992192182   F   F   F
     0.0041942376164377    0.9980744666107776    0.2926687729168634   T   T   T
     0.1666699946455736    0.1666699946455736    0.0000000000000000   F   F   F
     0.1669443473553632    0.1663030239404716    0.1946481622597028   T   T   T
     0.3333300053827557    0.0000000000000000    0.0979299992192182   F   F   F
     0.3347817372064204    0.0187690247347341    0.2948236105365561   T   T   T
     0.5000000000283293    0.1666699946455736    0.0000000000000000   F   F   F
     0.5023961664004920    0.1656104619692964    0.1947252230763526   T   T   T
     0.6666700243632988    0.0000000000000000    0.0979299992192182   F   F   F
     0.6649322969487842    0.9971525637954337    0.2928596863031986   T   T   T
     0.8333299756083719    0.1666699946455736    0.0000000000000000   F   F   F
     0.8341709097739477    0.1659535278818396    0.1982700909877716   T   T   T
     0.0000000000000000    0.3333300053827557    0.0979299992192182   F   F   F
     0.0312594279561610    0.3277997850624005    0.2959035250201482   T   T   T
     0.1666699946455736    0.5000000000283293    0.0000000000000000   F   F   F
     0.1676226646337230    0.5022596421364557    0.1944487789381924   T   T   T
     0.3333300053827557    0.3333300053827557    0.0979299992192182   F   F   F
     0.3369385805765827    0.3345966623957380    0.2751794896059101   T   T   T
     0.5000000000283293    0.5000000000283293    0.0000000000000000   F   F   F
     0.5052027711940039    0.5009773768953433    0.1945812509353954   T   T   T
     0.6666700243632988    0.3333300053827557    0.0979299992192182   F   F   F
     0.6433490120274891    0.3264250171991644    0.2960675353192799   T   T   T
     0.8333299756083719    0.5000000000283293    0.0000000000000000   F   F   F
     0.8356310858525796    0.4974453273048243    0.1959480071253542   T   T   T
     0.0000000000000000    0.6666700243632988    0.0979299992192182   F   F   F
     0.0097641025764707    0.6666449363264304    0.2952709280318777   T   T   T
     0.1666699946455736    0.8333299756083719    0.0000000000000000   F   F   F
     0.1694127417552089    0.8328510701056502    0.1983832298714276   T   T   T
     0.3333300053827557    0.6666700243632988    0.0979299992192182   F   F   F
     0.3380385004326566    0.6537364766665079    0.2922091906701205   T   T   T
     0.5000000000283293    0.8333299756083719    0.0000000000000000   F   F   F
     0.5016197788731166    0.8318833274574242    0.1981567134533017   T   T   T
     0.6666700243632988    0.6666700243632988    0.0979299992192182   F   F   F
     0.6666011487052207    0.6675524359750968    0.2956086276772613   T   T   T
     0.8333299756083719    0.8333299756083719    0.0000000000000000   F   F   F
     0.8355261725809007    0.8309624631960185    0.1979097032501844   T   T   T
     0.8373649615250297    0.4780501163385482    0.3206142633538691   T   T   T
 
  0.00000000E+00  0.00000000E+00  0.00000000E+00
  0.00000000E+00  0.00000000E+00  0.00000000E+00
  0.00000000E+00  0.00000000E+00  0.00000000E+00
  0.00000000E+00  0.00000000E+00  0.00000000E+00
  0.00000000E+00  0.00000000E+00  0.00000000E+00
  0.00000000E+00  0.00000000E+00  0.00000000E+00
  0.00000000E+00  0.00000000E+00  0.00000000E+00
  0.00000000E+00  0.00000000E+00  0.00000000E+00
  0.00000000E+00  0.00000000E+00  0.00000000E+00
  0.00000000E+00  0.00000000E+00  0.00000000E+00
  0.00000000E+00  0.00000000E+00  0.00000000E+00
  0.00000000E+00  0.00000000E+00  0.00000000E+00
  0.00000000E+00  0.00000000E+00  0.00000000E+00
  0.00000000E+00  0.00000000E+00  0.00000000E+00
  0.00000000E+00  0.00000000E+00  0.00000000E+00
  0.00000000E+00  0.00000000E+00  0.00000000E+00
  0.00000000E+00  0.00000000E+00  0.00000000E+00
  0.00000000E+00  0.00000000E+00  0.00000000E+00
  0.00000000E+00  0.00000000E+00  0.00000000E+00
  0.00000000E+00  0.00000000E+00  0.00000000E+00
  0.00000000E+00  0.00000000E+00  0.00000000E+00
  0.00000000E+00  0.00000000E+00  0.00000000E+00
  0.00000000E+00  0.00000000E+00  0.00000000E+00
  0.00000000E+00  0.00000000E+00  0.00000000E+00
  0.00000000E+00  0.00000000E+00  0.00000000E+00
  0.00000000E+00  0.00000000E+00  0.00000000E+00
  0.00000000E+00  0.00000000E+00  0.00000000E+00
  0.00000000E+00  0.00000000E+00  0.00000000E+00
  0.00000000E+00  0.00000000E+00  0.00000000E+00
  0.00000000E+00  0.00000000E+00  0.00000000E+00
  0.00000000E+00  0.00000000E+00  0.00000000E+00
  0.00000000E+00  0.00000000E+00  0.00000000E+00
  0.00000000E+00  0.00000000E+00  0.00000000E+00
  0.00000000E+00  0.00000000E+00  0.00000000E+00
  0.00000000E+00  0.00000000E+00  0.00000000E+00
  0.00000000E+00  0.00000000E+00  0.00000000E+00
  0.00000000E+00  0.00000000E+00  0.00000000E+00
