Cu Sc Cu O  C  H                        
   1.00000000000000     
     6.3046998978000000    0.0000000000000000    0.0000000000000000
     0.0000000000000000    7.7216000556999997    0.0000000000000000
     0.0000000000000000    0.0000000000000000   25.4022006988999998
   Cu   Sc   Cu   O    C    H 
    19     1    25     1     1     4
Selective dynamics
Direct
  0.0000000000000000  0.0000000000000000  0.0000000000000000   F   F   F
  0.3333299999999966  0.0000000000000000  0.1169999999999973   F   F   F
  0.6667823613499135  0.9981805526802355  0.2354743232655844   T   T   T
  0.9965435797804473  0.0006599586046919  0.3559017360179405   T   T   T
  0.6480579739061647  0.9857786305093283  0.4063981833939202   T   T   T
  0.6666700000000034  0.0000000000000000  0.0585000000000022   F   F   F
  0.0003891840255218  0.9986817436389134  0.1758788188030573   T   T   T
  0.3324150481783669 -0.0007190871621968  0.2936619565919694   T   T   T
  0.3333299999999966  0.1666700000000034  0.0292499999999976   F   F   F
  0.6666700000000034  0.1666700000000034  0.1462500000000020   F   F   F
  0.0015437081732896  0.1632924034846137  0.2628977528844694   T   T   T
  0.3355505143187087  0.1664767739406144  0.3822722561464954   T   T   T
  0.0000000000000000  0.1666700000000034  0.0877499999999998   F   F   F
  0.3349743923750499  0.1653969355768971  0.2051359079105094   T   T   T
  0.6730034417527372  0.1680006635164304  0.3244905883633266   T   T   T
  0.0000000000000000  0.3333299999999966  0.0000000000000000   F   F   F
  0.3333299999999966  0.3333299999999966  0.1169999999999973   F   F   F
  0.6705830668161490  0.3321942162205405  0.2344158589147887   T   T   T
  0.0178370537073962  0.3320820380520307  0.3478025038780038   T   T   T
  0.7586278988617786  0.3178666771178938  0.4298053946062740   T   T   T
  0.6666700000000034  0.3333299999999966  0.0585000000000022   F   F   F
  0.0014640990477165  0.3325184166026292  0.1753746074934283   T   T   T
  0.3439517731416994  0.3314080810849676  0.2926006862485648   T   T   T
  0.3333299999999966  0.5000000000000000  0.0292499999999976   F   F   F
  0.6666700000000034  0.5000000000000000  0.1462500000000020   F   F   F
  0.0015230157461615  0.5000538729188874  0.2626002143611427   T   T   T
  0.3312577825543460  0.4942877599085611  0.3815868179221797   T   T   T
  0.0000000000000000  0.5000000000000000  0.0877499999999998   F   F   F
  0.3350372279030572  0.4993076491002392  0.2053175986863562   T   T   T
  0.6737544317943330  0.4939710984350954  0.3249130579166775   T   T   T
  0.0000000000000000  0.6666700000000034  0.0000000000000000   F   F   F
  0.3333299999999966  0.6666700000000034  0.1169999999999973   F   F   F
  0.6657694721043961  0.6647502872311862  0.2348319550869893   T   T   T
  0.9966266862909700  0.6616719059417766  0.3553905435807573   T   T   T
  0.6536178078899845  0.6707809747736274  0.4112632706724049   T   T   T
  0.6666700000000034  0.6666700000000034  0.0585000000000022   F   F   F
 -0.0000438292604905  0.6667966769822743  0.1757427973176329   T   T   T
  0.3319952904438946  0.6628625832451327  0.2945364276845672   T   T   T
  0.3333299999999966  0.8333299999999966  0.0292499999999976   F   F   F
  0.6666700000000034  0.8333299999999966  0.1462500000000020   F   F   F
 -0.0003322711032784  0.8315165493458753  0.2651879096862606   T   T   T
  0.3213991891399018  0.8302522723512017  0.3803132175706515   T   T   T
  0.0000000000000000  0.8333299999999966  0.0877499999999998   F   F   F
  0.3327035704021425  0.8317792993398593  0.2058626134291865   T   T   T
  0.6676984491627129  0.8249154275240900  0.3230321389072145   T   T   T
  0.6433508764454148  0.4957602353123967  0.4648032683368550   T   T   T
  0.6444263632638687  0.6995357188801551  0.5833872209185860   T   T   T
  0.6340007207121464  0.8068252006741341  0.5555357605717098   T   T   T
  0.5037461345989279  0.6987389671102832  0.6083725818915757   T   T   T
  0.7860403320846547  0.7143287632413059  0.6076598516980796   T   T   T
  0.6528067959509530  0.5797227994968223  0.5610247570763126   T   T   T
 
  0.00000000E+00  0.00000000E+00  0.00000000E+00
  0.00000000E+00  0.00000000E+00  0.00000000E+00
  0.00000000E+00  0.00000000E+00  0.00000000E+00
  0.00000000E+00  0.00000000E+00  0.00000000E+00
  0.00000000E+00  0.00000000E+00  0.00000000E+00
  0.00000000E+00  0.00000000E+00  0.00000000E+00
  0.00000000E+00  0.00000000E+00  0.00000000E+00
  0.00000000E+00  0.00000000E+00  0.00000000E+00
  0.00000000E+00  0.00000000E+00  0.00000000E+00
  0.00000000E+00  0.00000000E+00  0.00000000E+00
  0.00000000E+00  0.00000000E+00  0.00000000E+00
  0.00000000E+00  0.00000000E+00  0.00000000E+00
  0.00000000E+00  0.00000000E+00  0.00000000E+00
  0.00000000E+00  0.00000000E+00  0.00000000E+00
  0.00000000E+00  0.00000000E+00  0.00000000E+00
  0.00000000E+00  0.00000000E+00  0.00000000E+00
  0.00000000E+00  0.00000000E+00  0.00000000E+00
  0.00000000E+00  0.00000000E+00  0.00000000E+00
  0.00000000E+00  0.00000000E+00  0.00000000E+00
  0.00000000E+00  0.00000000E+00  0.00000000E+00
  0.00000000E+00  0.00000000E+00  0.00000000E+00
  0.00000000E+00  0.00000000E+00  0.00000000E+00
  0.00000000E+00  0.00000000E+00  0.00000000E+00
  0.00000000E+00  0.00000000E+00  0.00000000E+00
  0.00000000E+00  0.00000000E+00  0.00000000E+00
  0.00000000E+00  0.00000000E+00  0.00000000E+00
  0.00000000E+00  0.00000000E+00  0.00000000E+00
  0.00000000E+00  0.00000000E+00  0.00000000E+00
  0.00000000E+00  0.00000000E+00  0.00000000E+00
  0.00000000E+00  0.00000000E+00  0.00000000E+00
  0.00000000E+00  0.00000000E+00  0.00000000E+00
  0.00000000E+00  0.00000000E+00  0.00000000E+00
  0.00000000E+00  0.00000000E+00  0.00000000E+00
  0.00000000E+00  0.00000000E+00  0.00000000E+00
  0.00000000E+00  0.00000000E+00  0.00000000E+00
  0.00000000E+00  0.00000000E+00  0.00000000E+00
  0.00000000E+00  0.00000000E+00  0.00000000E+00
  0.00000000E+00  0.00000000E+00  0.00000000E+00
  0.00000000E+00  0.00000000E+00  0.00000000E+00
  0.00000000E+00  0.00000000E+00  0.00000000E+00
  0.00000000E+00  0.00000000E+00  0.00000000E+00
  0.00000000E+00  0.00000000E+00  0.00000000E+00
  0.00000000E+00  0.00000000E+00  0.00000000E+00
  0.00000000E+00  0.00000000E+00  0.00000000E+00
  0.00000000E+00  0.00000000E+00  0.00000000E+00
  0.00000000E+00  0.00000000E+00  0.00000000E+00
  0.00000000E+00  0.00000000E+00  0.00000000E+00
  0.00000000E+00  0.00000000E+00  0.00000000E+00
  0.00000000E+00  0.00000000E+00  0.00000000E+00
  0.00000000E+00  0.00000000E+00  0.00000000E+00
  0.00000000E+00  0.00000000E+00  0.00000000E+00
