Pd   C    H    O                        
   1.00000000000000     
     8.4004001617000004    0.0000000000000000    0.0000000000000000
    -4.2002000809000002    7.2749599419999997    0.0000000000000000
     0.0000000000000000    0.0000000000000000   21.8589000702000007
   Pd   C    H    O 
    36     1     4     1
Selective dynamics
Direct
  0.0000000000000000  0.0000000000000000  0.0000000000000000   F   F   F
  0.9995399912756124  0.0011473517823474  0.3173510950094007   T   T   T
  0.2212680453143475  0.1096497595122495  0.2097952544593618   T   T   T
  0.1111100018356126  0.2222200036685749  0.1045899987034034   F   F   F
  0.3333300053688575  0.0000000000000000  0.0000000000000000   F   F   F
  0.3343218499700826  0.0025974787447726  0.3198920323422171   T   T   T
  0.5549796978205036  0.1099774522106599  0.2099893989546998   T   T   T
  0.4444400072044701  0.2222200036685749  0.1045899987034034   F   F   F
  0.6666700244273471  0.0000000000000000  0.0000000000000000   F   F   F
  0.6678757752368047  0.0009447884663878  0.3172044238769798   T   T   T
  0.8889753797983455  0.1113819886640971  0.2103938562503143   T   T   T
  0.7777799963834298  0.2222200036685749  0.1045899987034034   F   F   F
  0.9999999999751026  0.3333300054341351  0.0000000000000000   F   F   F
  0.0010573895168709  0.3352980051753665  0.3191073629630568   T   T   T
  0.2208781353951239  0.4435167208784721  0.2115615776905958   T   T   T
  0.1111100017544543  0.5555599928003048  0.1045899987034034   F   F   F
  0.3333300054630044  0.3333300054341351  0.0000000000000000   F   F   F
  0.3270824802953837  0.3381029444293439  0.3154309277273314   T   T   T
  0.5556181316961576  0.4447857335181390  0.2097798414460051   T   T   T
  0.4444400072423562  0.5555599928003048  0.1045899987034034   F   F   F
  0.6666700244024496  0.3333300054341351  0.0000000000000000   F   F   F
  0.6783026661542219  0.3383740988052479  0.3158882853698193   T   T   T
  0.8889542911269532  0.4437376115730541  0.2117658172804538   T   T   T
  0.7777799964213158  0.5555599928003048  0.1045899987034034   F   F   F
  0.0000000000469171  0.6666700243942075  0.0000000000000000   F   F   F
  0.0057209757156729  0.6726008861959776  0.3186646816101683   T   T   T
  0.2228634980301343  0.7792897686445597  0.2111691445897431   T   T   T
  0.1111100018825297  0.8888900280627824  0.1045899987034034   F   F   F
  0.3333300054157746  0.6666700243942075  0.0000000000000000   F   F   F
  0.3332151503232574  0.6725424965283892  0.3183171746358143   T   T   T
  0.5559825658390889  0.7760292867724478  0.2118443793553482   T   T   T
  0.4444400072513872  0.8888900280627824  0.1045899987034034   F   F   F
  0.6666700243552199  0.6666700243942075  0.0000000000000000   F   F   F
  0.6667378473692958  0.6668365186048384  0.3241594797222031   T   T   T
  0.8864532122289481  0.7758221624755105  0.2120392043635604   T   T   T
  0.7777799964303469  0.8888900280627824  0.1045899987034034   F   F   F
  0.6465212353999106  0.6259354974362180  0.4299103297659022   T   T   T
  0.7422324731568564  0.5960527607064761  0.4541495509285912   T   T   T
  0.5212314797449089  0.5853757284566495  0.4561565629876316   T   T   T
  0.7143772585239805  0.7752312387836627  0.4232673090391977   T   T   T
  0.5644300413842444  0.4629517258905609  0.3975791202754205   T   T   T
  0.4793397172779793  0.2925364166477683  0.3802983319713042   T   T   T
 
  0.00000000E+00  0.00000000E+00  0.00000000E+00
 -0.31779680E-02  0.57641125E-03 -0.22306060E-01
 -0.74772561E-03  0.74475875E-02 -0.28928000E-01
  0.00000000E+00  0.00000000E+00  0.00000000E+00
  0.00000000E+00  0.00000000E+00  0.00000000E+00
 -0.75731119E-02  0.40071874E-01  0.33354771E-01
 -0.68262517E-03  0.91661314E-02 -0.25770185E-01
  0.00000000E+00  0.00000000E+00  0.00000000E+00
  0.00000000E+00  0.00000000E+00  0.00000000E+00
  0.32200243E-02  0.91684920E-03 -0.18464386E-01
  0.40558836E-03  0.19033561E-02 -0.11194775E-01
  0.00000000E+00  0.00000000E+00  0.00000000E+00
  0.00000000E+00  0.00000000E+00  0.00000000E+00
 -0.48083106E-02  0.72318529E-02 -0.78406258E-02
  0.46052246E-04  0.47539143E-02  0.41507343E-02
  0.00000000E+00  0.00000000E+00  0.00000000E+00
  0.00000000E+00  0.00000000E+00  0.00000000E+00
  0.31553779E-01 -0.41998764E-02  0.13968161E-01
 -0.17846652E-02  0.58029106E-02 -0.21232502E-01
  0.00000000E+00  0.00000000E+00  0.00000000E+00
  0.00000000E+00  0.00000000E+00  0.00000000E+00
 -0.29632474E-01  0.48351007E-02  0.12565267E-01
  0.27018023E-02  0.25968157E-02  0.33779955E-02
  0.00000000E+00  0.00000000E+00  0.00000000E+00
  0.00000000E+00  0.00000000E+00  0.00000000E+00
  0.63154246E-03 -0.22044419E-02 -0.36639800E-01
  0.49424433E-02 -0.11721777E-02  0.13925992E-01
  0.00000000E+00  0.00000000E+00  0.00000000E+00
  0.00000000E+00  0.00000000E+00  0.00000000E+00
  0.45924179E-02 -0.77103323E-02 -0.28460077E-01
 -0.11050771E-02  0.71574690E-02 -0.34354586E-02
  0.00000000E+00  0.00000000E+00  0.00000000E+00
  0.00000000E+00  0.00000000E+00  0.00000000E+00
  0.69624170E-03  0.34949129E-01 -0.13993131E+00
  0.24399127E-02  0.30092184E-02 -0.29395202E-02
  0.00000000E+00  0.00000000E+00  0.00000000E+00
  0.11879322E-02 -0.25027510E+00  0.32084643E-01
  0.50471339E-02  0.39856091E-01  0.92988198E-01
 -0.80347167E-02  0.47246733E-01  0.10737633E+00
  0.12099757E-03 -0.12240735E+00 -0.13928029E+00
  0.14914485E-02  0.78291034E+00  0.16304723E+00
  0.10158356E-02 -0.38375177E+00 -0.24361345E+00
