Rh   C    H    O                        
   1.00000000000000     
     8.1670999526999992    0.0000000000000000    0.0000000000000000
    -4.0835499762999996    7.0729160343000004    0.0000000000000000
     0.0000000000000000    0.0000000000000000   21.6683998108000004
   Rh   C    H    O 
    36     1     4     1
Selective dynamics
Direct
  0.0000000000000000  0.0000000000000000  0.0000000000000000   F   F   F
  0.9951234522236992  0.9969536057421233  0.3054566501870932   T   T   T
  0.2215998357571959  0.1102225829396524  0.2037049436875195   T   T   T
  0.1111100018265887  0.2222200036558988  0.1025800034339497   F   F   F
  0.3333300053588814  0.0000000000000000  0.0000000000000000   F   F   F
  0.3306704475270104  0.9946802290930493  0.3067602020374289   T   T   T
  0.5551307913439977  0.1103350253739574  0.2037164622560256   T   T   T
  0.4444400071854702  0.2222200036558988  0.1025800034339497   F   F   F
  0.6666700244313758  0.0000000000000000  0.0000000000000000   F   F   F
  0.6684808880663480  0.9971049204645237  0.3054469814169671   T   T   T
  0.8882349440851568  0.1098393177173932  0.2030902096064231   T   T   T
  0.7777799963820015  0.2222200036558988  0.1025800034339497   F   F   F
  0.9999999999638760  0.3333300054131528  0.0000000000000000   F   F   F
  0.9990064176892165  0.3311043165260618  0.3054504172090970   T   T   T
  0.2221609991139289  0.4425333618534473  0.2047141451964770   T   T   T
  0.1111100017919213  0.5555599927871741  0.1025800034339497   F   F   F
  0.3333300054451982  0.3333300054131528  0.0000000000000000   F   F   F
  0.3305641304601791  0.3302529276503200  0.3078131380204083   T   T   T
  0.5555225494475881  0.4445312790711545  0.2036325965034739   T   T   T
  0.4444400071508028  0.5555599927871741  0.1025800034339497   F   F   F
  0.6666700243952519  0.3333300054131528  0.0000000000000000   F   F   F
  0.6665769088192899  0.3302861839275145  0.3077917379410685   T   T   T
  0.8870026020934183  0.4425154563387715  0.2047460377009553   T   T   T
  0.7777799963473342  0.5555599927871741  0.1025800034339497   F   F   F
  0.0000000000297220  0.6666700243765434  0.0000000000000000   F   F   F
  0.0013720226399653  0.6656624103941607  0.3056696528199956   T   T   T
  0.2220877914927095  0.7775915311129673  0.2048809484051069   T   T   T
  0.1111100018563107  0.8888900280324350  0.1025800034339497   F   F   F
  0.3333300053886035  0.6666700243765434  0.0000000000000000   F   F   F
  0.3309691209214491  0.6653839171688614  0.3056558086761843   T   T   T
  0.5560568222295016  0.7754206475806957  0.2047983724629441   T   T   T
  0.4444400072151921  0.8888900280324350  0.1025800034339497   F   F   F
  0.6666700243386571  0.6666700243765434  0.0000000000000000   F   F   F
  0.6672030354343718  0.6675068258430366  0.3146339956545414   T   T   T
  0.8857998479715190  0.7753184202588628  0.2048193706503669   T   T   T
  0.7777799964117236  0.8888900280324350  0.1025800034339497   F   F   F
  0.6540094579790593  0.6394776411242953  0.4224028247987291   T   T   T
  0.7506022405221467  0.6083216548999948  0.4479317907551810   T   T   T
  0.5266977950329075  0.6035899065729398  0.4490730562128582   T   T   T
  0.7273755534600810  0.7926712801095848  0.4147381493997628   T   T   T
  0.5671715358403691  0.4672619405407140  0.3926538464631192   T   T   T
  0.4795135995414549  0.2920495378983650  0.3777344053012440   T   T   T
 
  0.00000000E+00  0.00000000E+00  0.00000000E+00
 -0.14447955E-01  0.12152130E-01 -0.68081792E-02
  0.11828061E-01  0.97950938E-02 -0.58024699E-02
  0.00000000E+00  0.00000000E+00  0.00000000E+00
  0.00000000E+00  0.00000000E+00  0.00000000E+00
 -0.88856745E-03  0.11579969E+00  0.14100030E+00
  0.10089052E-02  0.77868562E-02 -0.13997364E-01
  0.00000000E+00  0.00000000E+00  0.00000000E+00
  0.00000000E+00  0.00000000E+00  0.00000000E+00
  0.16080725E-01  0.11845477E-01 -0.12160323E-01
  0.50986416E-02  0.12581672E-01  0.23560244E-02
  0.00000000E+00  0.00000000E+00  0.00000000E+00
  0.00000000E+00  0.00000000E+00  0.00000000E+00
 -0.44054338E-02 -0.35012389E-02 -0.87265173E-02
 -0.10153398E-01  0.22212859E-01  0.12573860E-01
  0.00000000E+00  0.00000000E+00  0.00000000E+00
  0.00000000E+00  0.00000000E+00  0.00000000E+00
  0.21221220E-01 -0.80804136E-02  0.32434968E-04
  0.11197228E-02  0.15587316E-01  0.42574029E-02
  0.00000000E+00  0.00000000E+00  0.00000000E+00
  0.00000000E+00  0.00000000E+00  0.00000000E+00
 -0.26874660E-01 -0.10421111E-01  0.83315610E-03
  0.53563072E-02  0.23928479E-01  0.13690997E-01
  0.00000000E+00  0.00000000E+00  0.00000000E+00
  0.00000000E+00  0.00000000E+00  0.00000000E+00
 -0.30014975E-03 -0.28367317E-02 -0.16074451E-01
  0.38541488E-02 -0.69307230E-02  0.49963303E-01
  0.00000000E+00  0.00000000E+00  0.00000000E+00
  0.00000000E+00  0.00000000E+00  0.00000000E+00
  0.31332707E-03 -0.32052366E-02 -0.14757649E-01
 -0.65623451E-02 -0.29408098E-01  0.39203256E-01
  0.00000000E+00  0.00000000E+00  0.00000000E+00
  0.00000000E+00  0.00000000E+00  0.00000000E+00
 -0.52008043E-02 -0.84752298E-02 -0.26368201E+00
  0.30294981E-02 -0.21952083E-01  0.51836446E-01
  0.00000000E+00  0.00000000E+00  0.00000000E+00
 -0.17271973E-02 -0.30018582E+00  0.41940420E-01
  0.47472774E-02  0.11037705E-02  0.91325460E-01
 -0.16364850E-01  0.50730059E-02  0.10161261E+00
 -0.23141677E-02 -0.18857333E+00 -0.13836845E+00
  0.12714289E-02  0.66819628E+00  0.11566368E+00
 -0.10104792E-01 -0.43660112E+00 -0.25946402E+00
