Ag   W    Ag   O    C    H              
   1.00000000000000     
     8.8247003554999992    0.0000000000000000    0.0000000000000000
    -4.4123501777999996    7.6424146886999997    0.0000000000000000
     0.0000000000000000    0.0000000000000000   22.2052993773999994
   Ag   W    Ag   O    C    H 
    17     1    18     1     1     4
Selective dynamics
Direct
  0.0000000000000000  0.0000000000000000  0.0000000000000000   F   F   F
  0.0091263753173025  0.0116784589990359  0.3280820941164839   T   T   T
  0.2245071287100053  0.1160278638956028  0.2192853649349702   T   T   T
  0.1111101706199165  0.2222203412373176  0.1081602170355964   F   F   F
  0.3333302980839079  0.0000000000000000  0.0000000000000000   F   F   F
  0.3240356382953008  0.9959766363054399  0.3283015120940906   T   T   T
  0.5531777342139126  0.1099069155993850  0.2163149332150986   T   T   T
  0.4444404687038244  0.2222203412373176  0.1081602170355964   F   F   F
  0.6666696616314383  0.0000000000000000  0.0000000000000000   F   F   F
  0.6615330046670466  0.9974296560638229  0.3258020729665640   T   T   T
  0.8864341265882238  0.1098843903580911  0.2176681047042653   T   T   T
  0.7777798322513547  0.2222203412373176  0.1081602170355964   F   F   F
  0.0000000666032705  0.3333305118559764  0.0000000000000000   F   F   F
  0.0091401196189953  0.3308089139648644  0.3280586102618703   T   T   T
  0.2245430673903122  0.4418538777280703  0.2192814459680711   T   T   T
  0.1111103244804070  0.5555600125020490  0.1081602170355964   F   F   F
  0.3333304049718322  0.3333305118559764  0.0000000000000000   F   F   F
  0.3459309886689298  0.3396178901351672  0.3286012879387280   T   T   T
  0.5540788895287354  0.4437015806118526  0.2194816708285952   T   T   T
  0.4444394893813666  0.5555600125020490  0.1081602170355964   F   F   F
  0.6666697685193554  0.3333305118559764  0.0000000000000000   F   F   F
  0.6632551694688409  0.3102893308992279  0.3235827108870836   T   T   T
  0.8905389295163071  0.4449053305710665  0.2183545790317648   T   T   T
  0.7777799861118453  0.5555600125020490  0.1081602170355964   F   F   F
  0.0000002204637610  0.6666701831207078  0.0000000000000000   F   F   F
  0.9915079384004790  0.6624216457796476  0.3357729982672981   T   T   T
  0.2157502433042887  0.7745537166426417  0.2189816812994491   T   T   T
  0.1111104313683313  0.8888905243580254  0.1081602170355964   F   F   F
  0.3333305588323228  0.6666701831207078  0.0000000000000000   F   F   F
  0.3240593243148464  0.6614240388423351  0.3282930848155941   T   T   T
  0.5532005147960257  0.7766154660701684  0.2163251121615592   T   T   T
  0.4444407294522392  0.8888905243580254  0.1081602170355964   F   F   F
  0.6666699223798460  0.6666701831207078  0.0000000000000000   F   F   F
  0.6632106539569770  0.6862470204452222  0.3236143575163685   T   T   T
  0.8905346682262036  0.7789672524278307  0.2183857478079526   T   T   T
  0.7777800929997625  0.8888905243580254  0.1081602170355964   F   F   F
  0.7009416104653270  0.5170965304638869  0.3858726701529970   T   T   T
  0.3810337468780752  0.3570899323452976  0.4336468846597675   T   T   T
  0.2439110092654656  0.2885978761249163  0.4135320024008849   T   T   T
  0.3857262009815641  0.2573267663674258  0.4611824236472740   T   T   T
  0.3858608177543990  0.4617443157061529  0.4611643714685907   T   T   T
  0.5250604812620984  0.4290813012649396  0.4087361214970546   T   T   T
 
  0.00000000E+00  0.00000000E+00  0.00000000E+00
  0.00000000E+00  0.00000000E+00  0.00000000E+00
  0.00000000E+00  0.00000000E+00  0.00000000E+00
  0.00000000E+00  0.00000000E+00  0.00000000E+00
  0.00000000E+00  0.00000000E+00  0.00000000E+00
  0.00000000E+00  0.00000000E+00  0.00000000E+00
  0.00000000E+00  0.00000000E+00  0.00000000E+00
  0.00000000E+00  0.00000000E+00  0.00000000E+00
  0.00000000E+00  0.00000000E+00  0.00000000E+00
  0.00000000E+00  0.00000000E+00  0.00000000E+00
  0.00000000E+00  0.00000000E+00  0.00000000E+00
  0.00000000E+00  0.00000000E+00  0.00000000E+00
  0.00000000E+00  0.00000000E+00  0.00000000E+00
  0.00000000E+00  0.00000000E+00  0.00000000E+00
  0.00000000E+00  0.00000000E+00  0.00000000E+00
  0.00000000E+00  0.00000000E+00  0.00000000E+00
  0.00000000E+00  0.00000000E+00  0.00000000E+00
  0.00000000E+00  0.00000000E+00  0.00000000E+00
  0.00000000E+00  0.00000000E+00  0.00000000E+00
  0.00000000E+00  0.00000000E+00  0.00000000E+00
  0.00000000E+00  0.00000000E+00  0.00000000E+00
  0.00000000E+00  0.00000000E+00  0.00000000E+00
  0.00000000E+00  0.00000000E+00  0.00000000E+00
  0.00000000E+00  0.00000000E+00  0.00000000E+00
  0.00000000E+00  0.00000000E+00  0.00000000E+00
  0.00000000E+00  0.00000000E+00  0.00000000E+00
  0.00000000E+00  0.00000000E+00  0.00000000E+00
  0.00000000E+00  0.00000000E+00  0.00000000E+00
  0.00000000E+00  0.00000000E+00  0.00000000E+00
  0.00000000E+00  0.00000000E+00  0.00000000E+00
  0.00000000E+00  0.00000000E+00  0.00000000E+00
  0.00000000E+00  0.00000000E+00  0.00000000E+00
  0.00000000E+00  0.00000000E+00  0.00000000E+00
  0.00000000E+00  0.00000000E+00  0.00000000E+00
  0.00000000E+00  0.00000000E+00  0.00000000E+00
  0.00000000E+00  0.00000000E+00  0.00000000E+00
  0.00000000E+00  0.00000000E+00  0.00000000E+00
  0.00000000E+00  0.00000000E+00  0.00000000E+00
  0.00000000E+00  0.00000000E+00  0.00000000E+00
  0.00000000E+00  0.00000000E+00  0.00000000E+00
  0.00000000E+00  0.00000000E+00  0.00000000E+00
  0.00000000E+00  0.00000000E+00  0.00000000E+00
