Cu Sc Cu O  C  H                        
   1.00000000000000     
     6.3046998978000000    0.0000000000000000    0.0000000000000000
     0.0000000000000000    7.7216000556999997    0.0000000000000000
     0.0000000000000000    0.0000000000000000   25.4022006988999998
   Cu   Sc   Cu   O    C    H 
    19     1    25     1     1     4
Selective dynamics
Direct
  0.0000000000000000  0.0000000000000000  0.0000000000000000   F   F   F
  0.3333299999999966  0.0000000000000000  0.1169999999999973   F   F   F
  0.6668100779377056  0.9976166951688364  0.2351829471633302   T   T   T
  0.9933547011707256 -0.0000197025496521  0.3554080332241811   T   T   T
  0.6473864609318141  0.9864165641615504  0.4055833580870394   T   T   T
  0.6666700000000034  0.0000000000000000  0.0585000000000022   F   F   F
 -0.0001700310589941  0.9983357168470388  0.1758806358879848   T   T   T
  0.3319844404874093  0.9973150533630863  0.2932982676526028   T   T   T
  0.3333299999999966  0.1666700000000034  0.0292499999999976   F   F   F
  0.6666700000000034  0.1666700000000034  0.1462500000000020   F   F   F
  0.0013414817736565  0.1634011991399205  0.2633417026842845   T   T   T
  0.3312810306877027  0.1601204433485988  0.3812393077271541   T   T   T
  0.0000000000000000  0.1666700000000034  0.0877499999999998   F   F   F
  0.3338183531082152  0.1649280072420840  0.2054421295308738   T   T   T
  0.6712721194970199  0.1690387201187661  0.3241033512850242   T   T   T
  0.0000000000000000  0.3333299999999966  0.0000000000000000   F   F   F
  0.3333299999999966  0.3333299999999966  0.1169999999999973   F   F   F
  0.6690450812060925  0.3311664438451048  0.2342090803474084   T   T   T
  0.0142001353672557  0.3332137836590274  0.3493981346391334   T   T   T
  0.7309607998184984  0.3194637309156700  0.4276000891478792   T   T   T
  0.6666700000000034  0.3333299999999966  0.0585000000000022   F   F   F
  0.0014190447952046  0.3321083378467293  0.1753915213155650   T   T   T
  0.3413741571836340  0.3324090434485937  0.2937098632197652   T   T   T
  0.3333299999999966  0.5000000000000000  0.0292499999999976   F   F   F
  0.6666700000000034  0.5000000000000000  0.1462500000000020   F   F   F
  0.0019544239906545  0.4989403808244108  0.2622813662722074   T   T   T
  0.3274220736603366  0.4900840991588212  0.3872634056605713   T   T   T
  0.0000000000000000  0.5000000000000000  0.0877499999999998   F   F   F
  0.3347027052083359  0.4984936162551251  0.2054298260360556   T   T   T
  0.6740602176338865  0.4939644927551692  0.3235051641441436   T   T   T
  0.0000000000000000  0.6666700000000034  0.0000000000000000   F   F   F
  0.3333299999999966  0.6666700000000034  0.1169999999999973   F   F   F
  0.6660912306315625  0.6638626951094696  0.2344545313738622   T   T   T
  0.9968679574283297  0.6593508689457139  0.3555038697159815   T   T   T
  0.6583257066232062  0.6749728000919686  0.4084113294830135   T   T   T
  0.6666700000000034  0.6666700000000034  0.0585000000000022   F   F   F
  0.0003338683406187  0.6666916453065439  0.1755267943303377   T   T   T
  0.3309583331163403  0.6592609580607481  0.2955628488541808   T   T   T
  0.3333299999999966  0.8333299999999966  0.0292499999999976   F   F   F
  0.6666700000000034  0.8333299999999966  0.1462500000000020   F   F   F
  0.0002120837473102  0.8304136258842739  0.2648682687169967   T   T   T
  0.3183142431203472  0.8300898548244227  0.3800995495008884   T   T   T
  0.0000000000000000  0.8333299999999966  0.0877499999999998   F   F   F
  0.3329110768697232  0.8302974238635201  0.2060097168136791   T   T   T
  0.6677132499324823  0.8252273334053327  0.3217435734323688   T   T   T
  0.5409868561573069  0.4820573628341033  0.4509786767565268   T   T   T
  0.6651745373116761  0.7126678528252676  0.5672687754861970   T   T   T
  0.7263615569114451  0.8006448990881252  0.5372363875829084   T   T   T
  0.5616665615445254  0.7841773811664954  0.5940178368958452   T   T   T
  0.7971619335086345  0.6567731159938739  0.5893135166153952   T   T   T
  0.5750248755305735  0.6105660947744130  0.5478757909990063   T   T   T
 
  0.00000000E+00  0.00000000E+00  0.00000000E+00
  0.00000000E+00  0.00000000E+00  0.00000000E+00
  0.00000000E+00  0.00000000E+00  0.00000000E+00
  0.00000000E+00  0.00000000E+00  0.00000000E+00
  0.00000000E+00  0.00000000E+00  0.00000000E+00
  0.00000000E+00  0.00000000E+00  0.00000000E+00
  0.00000000E+00  0.00000000E+00  0.00000000E+00
  0.00000000E+00  0.00000000E+00  0.00000000E+00
  0.00000000E+00  0.00000000E+00  0.00000000E+00
  0.00000000E+00  0.00000000E+00  0.00000000E+00
  0.00000000E+00  0.00000000E+00  0.00000000E+00
  0.00000000E+00  0.00000000E+00  0.00000000E+00
  0.00000000E+00  0.00000000E+00  0.00000000E+00
  0.00000000E+00  0.00000000E+00  0.00000000E+00
  0.00000000E+00  0.00000000E+00  0.00000000E+00
  0.00000000E+00  0.00000000E+00  0.00000000E+00
  0.00000000E+00  0.00000000E+00  0.00000000E+00
  0.00000000E+00  0.00000000E+00  0.00000000E+00
  0.00000000E+00  0.00000000E+00  0.00000000E+00
  0.00000000E+00  0.00000000E+00  0.00000000E+00
  0.00000000E+00  0.00000000E+00  0.00000000E+00
  0.00000000E+00  0.00000000E+00  0.00000000E+00
  0.00000000E+00  0.00000000E+00  0.00000000E+00
  0.00000000E+00  0.00000000E+00  0.00000000E+00
  0.00000000E+00  0.00000000E+00  0.00000000E+00
  0.00000000E+00  0.00000000E+00  0.00000000E+00
  0.00000000E+00  0.00000000E+00  0.00000000E+00
  0.00000000E+00  0.00000000E+00  0.00000000E+00
  0.00000000E+00  0.00000000E+00  0.00000000E+00
  0.00000000E+00  0.00000000E+00  0.00000000E+00
  0.00000000E+00  0.00000000E+00  0.00000000E+00
  0.00000000E+00  0.00000000E+00  0.00000000E+00
  0.00000000E+00  0.00000000E+00  0.00000000E+00
  0.00000000E+00  0.00000000E+00  0.00000000E+00
  0.00000000E+00  0.00000000E+00  0.00000000E+00
  0.00000000E+00  0.00000000E+00  0.00000000E+00
  0.00000000E+00  0.00000000E+00  0.00000000E+00
  0.00000000E+00  0.00000000E+00  0.00000000E+00
  0.00000000E+00  0.00000000E+00  0.00000000E+00
  0.00000000E+00  0.00000000E+00  0.00000000E+00
  0.00000000E+00  0.00000000E+00  0.00000000E+00
  0.00000000E+00  0.00000000E+00  0.00000000E+00
  0.00000000E+00  0.00000000E+00  0.00000000E+00
  0.00000000E+00  0.00000000E+00  0.00000000E+00
  0.00000000E+00  0.00000000E+00  0.00000000E+00
  0.00000000E+00  0.00000000E+00  0.00000000E+00
  0.00000000E+00  0.00000000E+00  0.00000000E+00
  0.00000000E+00  0.00000000E+00  0.00000000E+00
  0.00000000E+00  0.00000000E+00  0.00000000E+00
  0.00000000E+00  0.00000000E+00  0.00000000E+00
  0.00000000E+00  0.00000000E+00  0.00000000E+00
