Au Mn Au O  C  H                        
   1.00000000000000     
     8.8458995818999995    0.0000000000000000    0.0000000000000000
    -4.4229497909999997    7.6607737573000003    0.0000000000000000
     0.0000000000000000    0.0000000000000000   22.2227001189999989
   Au   Mn   Au   O    C    H 
    17     1    18     1     1     4
Selective dynamics
Direct
  0.0000000000000000  0.0000000000000000  0.0000000000000000   F   F   F
  0.0091274018549053  0.0060068604926736  0.3304276074018356   T   T   T
  0.2225296234950771  0.1118720991267926  0.2172537774844288   T   T   T
  0.1111100036335770  0.2222200072646459  0.1083399993748557   F   F   F
  0.3333300181287697  0.0000000000000000  0.0000000000000000   F   F   F
  0.3304848647706313  0.0062245832320535  0.3303810242959784   T   T   T
  0.5561756396935985  0.1081303598009425  0.2184812021396768   T   T   T
  0.4444399948572268  0.2222200072646459  0.1083399993748557   F   F   F
  0.6666700087876549  0.0000000000000000  0.0000000000000000   F   F   F
  0.6743314154034448  0.0154143273708275  0.3340388426379766   T   T   T
  0.8850950541541469  0.1080472815836981  0.2184703788396364   T   T   T
  0.7777800124212320  0.2222200072646459  0.1083399993748557   F   F   F
  0.9999999925351943  0.3333300031953925  0.0000000000000000   F   F   F
  0.0016302817733054  0.3278081422609621  0.3280050826415019   T   T   T
  0.2261516968600253  0.4461825860257992  0.2208552049660948   T   T   T
  0.1111100262929554  0.5555600161073073  0.1083399993748557   F   F   F
  0.3333300106639641  0.3333300031953925  0.0000000000000000   F   F   F
  0.3242521030558893  0.3152349312559925  0.3175464974258921   T   T   T
  0.5532569278960690  0.4462128817860657  0.2207968516547731   T   T   T
  0.4444400175166052  0.5555600161073073  0.1083399993748557   F   F   F
  0.6666700147754128  0.3333300031953925  0.0000000000000000   F   F   F
  0.6596273111932562  0.3278195893333030  0.3279956531458285   T   T   T
  0.8896727811324758  0.4459695109284401  0.2169006599975512   T   T   T
  0.7777800080624431  0.5555600161073073  0.1083399993748557   F   F   F
  0.0000000093958050  0.6666700275717332  0.0000000000000000   F   F   F
 -0.0012002747028724  0.6644512473269415  0.3294597399405398   T   T   T
  0.2232094795126568  0.7766633892595151  0.2197794043224942   T   T   T
  0.1111100207962252  0.8888900503700583  0.1083399993748557   F   F   F
  0.3333300276376221  0.6666700275717332  0.0000000000000000   F   F   F
  0.3127571281782602  0.6275552479043675  0.3414534403665463   T   T   T
  0.5554641927047063  0.7778329933491430  0.2215185421475208   T   T   T
  0.4444400120198750  0.8888900503700583  0.1083399993748557   F   F   F
  0.6666700181834599  0.6666700275717332  0.0000000000000000   F   F   F
  0.6479663538907369  0.6279126414813468  0.3414461905327566   T   T   T
  0.8865312713818537  0.7766161673794809  0.2197895154481481   T   T   T
  0.7777800026787602  0.8888900503700583  0.1083399993748557   F   F   F
  0.5571762707591328  0.7810861331912223  0.3888375208594126   T   T   T
  0.3322290562959571  0.3310590067770381  0.4749292841141074   T   T   T
  0.2988735682517911  0.2643137730519615  0.4312423854695238   T   T   T
  0.4135530110154757  0.2913760972264836  0.4993983447361053   T   T   T
  0.2111421831487809  0.2913305032823305  0.4993853291087940   T   T   T
  0.4025977930659099  0.4718604497004309  0.4683965700133787   T   T   T
 
  0.00000000E+00  0.00000000E+00  0.00000000E+00
  0.00000000E+00  0.00000000E+00  0.00000000E+00
  0.00000000E+00  0.00000000E+00  0.00000000E+00
  0.00000000E+00  0.00000000E+00  0.00000000E+00
  0.00000000E+00  0.00000000E+00  0.00000000E+00
  0.00000000E+00  0.00000000E+00  0.00000000E+00
  0.00000000E+00  0.00000000E+00  0.00000000E+00
  0.00000000E+00  0.00000000E+00  0.00000000E+00
  0.00000000E+00  0.00000000E+00  0.00000000E+00
  0.00000000E+00  0.00000000E+00  0.00000000E+00
  0.00000000E+00  0.00000000E+00  0.00000000E+00
  0.00000000E+00  0.00000000E+00  0.00000000E+00
  0.00000000E+00  0.00000000E+00  0.00000000E+00
  0.00000000E+00  0.00000000E+00  0.00000000E+00
  0.00000000E+00  0.00000000E+00  0.00000000E+00
  0.00000000E+00  0.00000000E+00  0.00000000E+00
  0.00000000E+00  0.00000000E+00  0.00000000E+00
  0.00000000E+00  0.00000000E+00  0.00000000E+00
  0.00000000E+00  0.00000000E+00  0.00000000E+00
  0.00000000E+00  0.00000000E+00  0.00000000E+00
  0.00000000E+00  0.00000000E+00  0.00000000E+00
  0.00000000E+00  0.00000000E+00  0.00000000E+00
  0.00000000E+00  0.00000000E+00  0.00000000E+00
  0.00000000E+00  0.00000000E+00  0.00000000E+00
  0.00000000E+00  0.00000000E+00  0.00000000E+00
  0.00000000E+00  0.00000000E+00  0.00000000E+00
  0.00000000E+00  0.00000000E+00  0.00000000E+00
  0.00000000E+00  0.00000000E+00  0.00000000E+00
  0.00000000E+00  0.00000000E+00  0.00000000E+00
  0.00000000E+00  0.00000000E+00  0.00000000E+00
  0.00000000E+00  0.00000000E+00  0.00000000E+00
  0.00000000E+00  0.00000000E+00  0.00000000E+00
  0.00000000E+00  0.00000000E+00  0.00000000E+00
  0.00000000E+00  0.00000000E+00  0.00000000E+00
  0.00000000E+00  0.00000000E+00  0.00000000E+00
  0.00000000E+00  0.00000000E+00  0.00000000E+00
  0.00000000E+00  0.00000000E+00  0.00000000E+00
  0.00000000E+00  0.00000000E+00  0.00000000E+00
  0.00000000E+00  0.00000000E+00  0.00000000E+00
  0.00000000E+00  0.00000000E+00  0.00000000E+00
  0.00000000E+00  0.00000000E+00  0.00000000E+00
  0.00000000E+00  0.00000000E+00  0.00000000E+00
