Cu Sc Cu O                              
   1.00000000000000     
     6.3046998978000000    0.0000000000000000    0.0000000000000000
     0.0000000000000000    7.7216000556999997    0.0000000000000000
     0.0000000000000000    0.0000000000000000   25.4022006988999998
   Cu   Sc   Cu   O 
    19     1    25     1
Selective dynamics
Direct
  0.0000000000000000  0.0000000000000000  0.0000000000000000   F   F   F
  0.3333299999999966  0.0000000000000000  0.1169999999999973   F   F   F
  0.6669375057944023 -0.0010373796844815  0.2338785096267027   T   T   T
 -0.0098065411598989  0.0000891262846258  0.3531895862030446   T   T   T
  0.6407740969319367 -0.0105984634585978  0.4009782969913273   T   T   T
  0.6666700000000034  0.0000000000000000  0.0585000000000022   F   F   F
  0.0002483124153626 -0.0012524403590833  0.1751019720226791   T   T   T
  0.3315062221592263 -0.0021390828489877  0.2915295033832202   T   T   T
  0.3333299999999966  0.1666700000000034  0.0292499999999976   F   F   F
  0.6666700000000034  0.1666700000000034  0.1462500000000020   F   F   F
  0.0003462795459347  0.1641236144959135  0.2619135493648557   T   T   T
  0.3270632127308679  0.1619287607895189  0.3780001136168780   T   T   T
  0.0000000000000000  0.1666700000000034  0.0877499999999998   F   F   F
  0.3334498827093515  0.1653674891022268  0.2047580843953594   T   T   T
  0.6701286768035297  0.1717425127506331  0.3214444872522710   T   T   T
  0.0000000000000000  0.3333299999999966  0.0000000000000000   F   F   F
  0.3333299999999966  0.3333299999999966  0.1169999999999973   F   F   F
  0.6678320543451365  0.3327232928701512  0.2331432134243600   T   T   T
  0.0118860718863455  0.3345618251961913  0.3471961053068993   T   T   T
  0.7220787850382472  0.3233036754396955  0.4237151566390700   T   T   T
  0.6666700000000034  0.3333299999999966  0.0585000000000022   F   F   F
  0.0008949461249368  0.3322708747122769  0.1747459474851524   T   T   T
  0.3387538894157726  0.3338893969533095  0.2921504161013306   T   T   T
  0.3333299999999966  0.5000000000000000  0.0292499999999976   F   F   F
  0.6666700000000034  0.5000000000000000  0.1462500000000020   F   F   F
 -0.0003626203329119  0.4998185469964496  0.2609407081914206   T   T   T
  0.3258604493906016  0.4911869995637942  0.3849841646150072   T   T   T
  0.0000000000000000  0.5000000000000000  0.0877499999999998   F   F   F
  0.3329837781733975  0.4991735412180537  0.2046103963732025   T   T   T
  0.6718671612186025  0.4965188716953046  0.3215206354354729   T   T   T
  0.0000000000000000  0.6666700000000034  0.0000000000000000   F   F   F
  0.3333299999999966  0.6666700000000034  0.1169999999999973   F   F   F
  0.6644831366307997  0.6649746250908175  0.2331683669873603   T   T   T
 -0.0048594157567724  0.6598831394730071  0.3533999685496659   T   T   T
  0.6523631396674507  0.6782784985300996  0.4055116810748383   T   T   T
  0.6666700000000034  0.6666700000000034  0.0585000000000022   F   F   F
 -0.0001570749222244  0.6672186516035790  0.1748766121485337   T   T   T
  0.3292574630394563  0.6597926633871397  0.2938749010409431   T   T   T
  0.3333299999999966  0.8333299999999966  0.0292499999999976   F   F   F
  0.6666700000000034  0.8333299999999966  0.1462500000000020   F   F   F
  0.0003453786960070  0.8312197148995462  0.2632270578425369   T   T   T
  0.3147818871366194  0.8313573174188897  0.3772118461836376   T   T   T
  0.0000000000000000  0.8333299999999966  0.0877499999999998   F   F   F
  0.3325604981576294  0.8309578598128751  0.2050897346862520   T   T   T
  0.6675960298116794  0.8263366907505297  0.3193701748862024   T   T   T
  0.5384168292757311  0.4904262601706853  0.4478998154347663   T   T   T
 
  0.00000000E+00  0.00000000E+00  0.00000000E+00
  0.00000000E+00  0.00000000E+00  0.00000000E+00
  0.00000000E+00  0.00000000E+00  0.00000000E+00
  0.00000000E+00  0.00000000E+00  0.00000000E+00
  0.00000000E+00  0.00000000E+00  0.00000000E+00
  0.00000000E+00  0.00000000E+00  0.00000000E+00
  0.00000000E+00  0.00000000E+00  0.00000000E+00
  0.00000000E+00  0.00000000E+00  0.00000000E+00
  0.00000000E+00  0.00000000E+00  0.00000000E+00
  0.00000000E+00  0.00000000E+00  0.00000000E+00
  0.00000000E+00  0.00000000E+00  0.00000000E+00
  0.00000000E+00  0.00000000E+00  0.00000000E+00
  0.00000000E+00  0.00000000E+00  0.00000000E+00
  0.00000000E+00  0.00000000E+00  0.00000000E+00
  0.00000000E+00  0.00000000E+00  0.00000000E+00
  0.00000000E+00  0.00000000E+00  0.00000000E+00
  0.00000000E+00  0.00000000E+00  0.00000000E+00
  0.00000000E+00  0.00000000E+00  0.00000000E+00
  0.00000000E+00  0.00000000E+00  0.00000000E+00
  0.00000000E+00  0.00000000E+00  0.00000000E+00
  0.00000000E+00  0.00000000E+00  0.00000000E+00
  0.00000000E+00  0.00000000E+00  0.00000000E+00
  0.00000000E+00  0.00000000E+00  0.00000000E+00
  0.00000000E+00  0.00000000E+00  0.00000000E+00
  0.00000000E+00  0.00000000E+00  0.00000000E+00
  0.00000000E+00  0.00000000E+00  0.00000000E+00
  0.00000000E+00  0.00000000E+00  0.00000000E+00
  0.00000000E+00  0.00000000E+00  0.00000000E+00
  0.00000000E+00  0.00000000E+00  0.00000000E+00
  0.00000000E+00  0.00000000E+00  0.00000000E+00
  0.00000000E+00  0.00000000E+00  0.00000000E+00
  0.00000000E+00  0.00000000E+00  0.00000000E+00
  0.00000000E+00  0.00000000E+00  0.00000000E+00
  0.00000000E+00  0.00000000E+00  0.00000000E+00
  0.00000000E+00  0.00000000E+00  0.00000000E+00
  0.00000000E+00  0.00000000E+00  0.00000000E+00
  0.00000000E+00  0.00000000E+00  0.00000000E+00
  0.00000000E+00  0.00000000E+00  0.00000000E+00
  0.00000000E+00  0.00000000E+00  0.00000000E+00
  0.00000000E+00  0.00000000E+00  0.00000000E+00
  0.00000000E+00  0.00000000E+00  0.00000000E+00
  0.00000000E+00  0.00000000E+00  0.00000000E+00
  0.00000000E+00  0.00000000E+00  0.00000000E+00
  0.00000000E+00  0.00000000E+00  0.00000000E+00
  0.00000000E+00  0.00000000E+00  0.00000000E+00
  0.00000000E+00  0.00000000E+00  0.00000000E+00
