Cu Hf Cu O                              
   1.00000000000000     
     7.7216000556999997    0.0000000000000000    0.0000000000000000
    -3.8608000277999999    6.6871018061000003    0.0000000000000000
     0.0000000000000000    0.0000000000000000   21.3047008513999998
   Cu   Hf   Cu   O 
    17     1    18     1
Selective dynamics
Direct
     0.0000000000000000    0.0000000000000000    0.0000000000000000   F   F   F
     0.9918484322576249    0.9953924243779577    0.2924572939370813   T   T   T
     0.2244273505820348    0.1149176034414293    0.1998127229027533   T   T   T
     0.1111100017667752    0.2222200035364281    0.0986400023008045   F   F   F
     0.3333300053659229    0.0000000000000000    0.0000000000000000   F   F   F
     0.3289821368910103    0.9859391496666414    0.2999227202572688   T   T   T
     0.5535810838056613    0.1126118390920734    0.1988272712506302   T   T   T
     0.4444400071326982    0.2222200035364281    0.0986400023008045   F   F   F
     0.6666700243299957    0.0000000000000000    0.0000000000000000   F   F   F
     0.6695246304281711    0.9975410710803040    0.2936171847128022   T   T   T
     0.8870770394115148    0.1118416404977167    0.1953910940026325   T   T   T
     0.7777799963101941    0.2222200035364281    0.0986400023008045   F   F   F
     0.0000000000045830    0.3333300053794161    0.0000000000000000   F   F   F
     0.9934270410950548    0.3319692761765159    0.2927127964525600   T   T   T
     0.2219229745413802    0.4448269187266271    0.1965304418742468   T   T   T
     0.1111100017242208    0.5555599927626460    0.0986400023008045   F   F   F
     0.3333300053705130    0.3333300053794161    0.0000000000000000   F   F   F
     0.3335950991057677    0.3332695234103122    0.3186231574454285   T   T   T
     0.5516170707792384    0.4422432760911031    0.1998398032885728   T   T   T
     0.4444400072196544    0.5555599927626460    0.0986400023008045   F   F   F
     0.6666700243345787    0.3333300053794161    0.0000000000000000   F   F   F
     0.6805605712487857    0.3376328328319007    0.2998708786470345   T   T   T
     0.8837033800622626    0.4437955102941404    0.1970162161862109   T   T   T
     0.7777799963971503    0.5555599927626460    0.0986400023008045   F   F   F
     0.9999999999481375    0.6666700243644144    0.0000000000000000   F   F   F
     0.0001045214198616    0.6664673947979354    0.2935915072931714   T   T   T
     0.2224168550094388    0.7826466445897352    0.1970169234576747   T   T   T
     0.1111100017896831    0.8888900280503833    0.0986400023008045   F   F   F
     0.3333300054435711    0.6666700243644144    0.0000000000000000   F   F   F
     0.3345568825741018    0.6731872130215377    0.2926950589278944   T   T   T
     0.5546510038292772    0.7794492701412850    0.1954316942902868   T   T   T
     0.4444400072851167    0.8888900280503833    0.0986400023008045   F   F   F
     0.6666700244076367    0.6666700243644144    0.0000000000000000   F   F   F
     0.6718100638690387    0.6752707679482873    0.2924455047547390   T   T   T
     0.8886673283532639    0.7778855884717513    0.1951552601323882   T   T   T
     0.7777799964626126    0.8888900280503833    0.0986400023008045   F   F   F
     0.4513822128028823    0.2154770734789540    0.3664438652994996   T   T   T
 
  0.00000000E+00  0.00000000E+00  0.00000000E+00
  0.00000000E+00  0.00000000E+00  0.00000000E+00
  0.00000000E+00  0.00000000E+00  0.00000000E+00
  0.00000000E+00  0.00000000E+00  0.00000000E+00
  0.00000000E+00  0.00000000E+00  0.00000000E+00
  0.00000000E+00  0.00000000E+00  0.00000000E+00
  0.00000000E+00  0.00000000E+00  0.00000000E+00
  0.00000000E+00  0.00000000E+00  0.00000000E+00
  0.00000000E+00  0.00000000E+00  0.00000000E+00
  0.00000000E+00  0.00000000E+00  0.00000000E+00
  0.00000000E+00  0.00000000E+00  0.00000000E+00
  0.00000000E+00  0.00000000E+00  0.00000000E+00
  0.00000000E+00  0.00000000E+00  0.00000000E+00
  0.00000000E+00  0.00000000E+00  0.00000000E+00
  0.00000000E+00  0.00000000E+00  0.00000000E+00
  0.00000000E+00  0.00000000E+00  0.00000000E+00
  0.00000000E+00  0.00000000E+00  0.00000000E+00
  0.00000000E+00  0.00000000E+00  0.00000000E+00
  0.00000000E+00  0.00000000E+00  0.00000000E+00
  0.00000000E+00  0.00000000E+00  0.00000000E+00
  0.00000000E+00  0.00000000E+00  0.00000000E+00
  0.00000000E+00  0.00000000E+00  0.00000000E+00
  0.00000000E+00  0.00000000E+00  0.00000000E+00
  0.00000000E+00  0.00000000E+00  0.00000000E+00
  0.00000000E+00  0.00000000E+00  0.00000000E+00
  0.00000000E+00  0.00000000E+00  0.00000000E+00
  0.00000000E+00  0.00000000E+00  0.00000000E+00
  0.00000000E+00  0.00000000E+00  0.00000000E+00
  0.00000000E+00  0.00000000E+00  0.00000000E+00
  0.00000000E+00  0.00000000E+00  0.00000000E+00
  0.00000000E+00  0.00000000E+00  0.00000000E+00
  0.00000000E+00  0.00000000E+00  0.00000000E+00
  0.00000000E+00  0.00000000E+00  0.00000000E+00
  0.00000000E+00  0.00000000E+00  0.00000000E+00
  0.00000000E+00  0.00000000E+00  0.00000000E+00
  0.00000000E+00  0.00000000E+00  0.00000000E+00
  0.00000000E+00  0.00000000E+00  0.00000000E+00
