Cu Re Cu O  C  H                        
   1.00000000000000     
    10.9200000762999991    0.0000000000000000    0.0000000000000000
     0.0000000000000000    7.7216000556999997    0.0000000000000000
     0.0000000000000000    0.0000000000000000   18.8607997894000015
   Cu   Re   Cu   O    C    H 
    16     1    19     1     1     4
Selective dynamics
Direct
  0.9980204557920981  0.9986387896349511  0.2020592840788250   T   T   T
  0.1672999872734361  0.1658505673159054  0.1406930729396659   T   T   T
  0.1666699946229926  0.1666699946535033  0.0000000000000000   F   F   F
  0.0000000000000000  0.0000000000000000  0.0682300030947403   F   F   F
  0.3291021884928119  0.0057392826824610  0.2073978559587374   T   T   T
  0.5008559943696133  0.1679426204299782  0.1381952145596883   T   T   T
  0.4999999999862652  0.1666699946535033  0.0000000000000000   F   F   F
  0.3333300053632726  0.0000000000000000  0.0682300030947403   F   F   F
  0.6720223647368947  0.0018728694803994  0.2029965951504807   T   T   T
  0.8334361904708849  0.1669968458508820  0.1391981252819569   T   T   T
  0.8333299755876311  0.1666699946535033  0.0000000000000000   F   F   F
  0.6666700243711574  0.0000000000000000  0.0682300030947403   F   F   F
  0.0003710713948337  0.3318338938369921  0.2029173420785811   T   T   T
  0.1670770482242764  0.4983604970248794  0.1405517830659618   T   T   T
  0.1666699946229926  0.5000000000194262  0.0000000000000000   F   F   F
  0.0000000000000000  0.3333300053659229  0.0682300030947403   F   F   F
  0.3334275198686345  0.3316524283370294  0.2044876957840991   T   T   T
  0.5005496352784020  0.4969368143649885  0.1383713890946876   T   T   T
  0.4999999999862652  0.5000000000194262  0.0000000000000000   F   F   F
  0.3333300053632726  0.3333300053659229  0.0682300030947403   F   F   F
  0.6648512518248040  0.3321142041784547  0.2029020369156327   T   T   T
  0.8333971112131109  0.4981043916587480  0.1392421145659815   T   T   T
  0.8333299755876311  0.5000000000194262  0.0000000000000000   F   F   F
  0.6666700243711574  0.3333300053659229  0.0682300030947403   F   F   F
  0.9983991260391056  0.6653086217936872  0.2020767691548533   T   T   T
  0.1643051707697611  0.8325662165693091  0.1379178991052294   T   T   T
  0.1666699946229926  0.8333299755987795  0.0000000000000000   F   F   F
  0.0000000000000000  0.6666700243299957  0.0682300030947403   F   F   F
  0.3274489643926561  0.6576534690099112  0.2074755579833530   T   T   T
  0.5045133438288839  0.8324738696234619  0.1404382863931976   T   T   T
  0.4999999999862652  0.8333299755987795  0.0000000000000000   F   F   F
  0.3333300053632726  0.6666700243299957  0.0682300030947403   F   F   F
  0.6716483099791009  0.6625618703942174  0.2029887684858402   T   T   T
  0.8335419450039566  0.8323752987688512  0.1392203324817103   T   T   T
  0.8333299755876311  0.8333299755987795  0.0000000000000000   F   F   F
  0.6666700243711574  0.6666700243299957  0.0682300030947403   F   F   F
  0.4326996608560884  0.8305309237218673  0.2429349361525990   T   T   T
  0.3330598942936591  0.3308899952159400  0.3582492587160109   T   T   T
  0.3104902893205848  0.2163315845026402  0.3258012164506470   T   T   T
  0.4126514578164482  0.2989805567101803  0.3906421897088976   T   T   T
  0.2536159394474488  0.3619987951629474  0.3908544394857079   T   T   T
  0.3555592479374053  0.4459943922657297  0.3262236885486298   T   T   T
 
  0.00000000E+00  0.00000000E+00  0.00000000E+00
  0.00000000E+00  0.00000000E+00  0.00000000E+00
  0.00000000E+00  0.00000000E+00  0.00000000E+00
  0.00000000E+00  0.00000000E+00  0.00000000E+00
  0.00000000E+00  0.00000000E+00  0.00000000E+00
  0.00000000E+00  0.00000000E+00  0.00000000E+00
  0.00000000E+00  0.00000000E+00  0.00000000E+00
  0.00000000E+00  0.00000000E+00  0.00000000E+00
  0.00000000E+00  0.00000000E+00  0.00000000E+00
  0.00000000E+00  0.00000000E+00  0.00000000E+00
  0.00000000E+00  0.00000000E+00  0.00000000E+00
  0.00000000E+00  0.00000000E+00  0.00000000E+00
  0.00000000E+00  0.00000000E+00  0.00000000E+00
  0.00000000E+00  0.00000000E+00  0.00000000E+00
  0.00000000E+00  0.00000000E+00  0.00000000E+00
  0.00000000E+00  0.00000000E+00  0.00000000E+00
  0.00000000E+00  0.00000000E+00  0.00000000E+00
  0.00000000E+00  0.00000000E+00  0.00000000E+00
  0.00000000E+00  0.00000000E+00  0.00000000E+00
  0.00000000E+00  0.00000000E+00  0.00000000E+00
  0.00000000E+00  0.00000000E+00  0.00000000E+00
  0.00000000E+00  0.00000000E+00  0.00000000E+00
  0.00000000E+00  0.00000000E+00  0.00000000E+00
  0.00000000E+00  0.00000000E+00  0.00000000E+00
  0.00000000E+00  0.00000000E+00  0.00000000E+00
  0.00000000E+00  0.00000000E+00  0.00000000E+00
  0.00000000E+00  0.00000000E+00  0.00000000E+00
  0.00000000E+00  0.00000000E+00  0.00000000E+00
  0.00000000E+00  0.00000000E+00  0.00000000E+00
  0.00000000E+00  0.00000000E+00  0.00000000E+00
  0.00000000E+00  0.00000000E+00  0.00000000E+00
  0.00000000E+00  0.00000000E+00  0.00000000E+00
  0.00000000E+00  0.00000000E+00  0.00000000E+00
  0.00000000E+00  0.00000000E+00  0.00000000E+00
  0.00000000E+00  0.00000000E+00  0.00000000E+00
  0.00000000E+00  0.00000000E+00  0.00000000E+00
  0.00000000E+00  0.00000000E+00  0.00000000E+00
  0.00000000E+00  0.00000000E+00  0.00000000E+00
  0.00000000E+00  0.00000000E+00  0.00000000E+00
  0.00000000E+00  0.00000000E+00  0.00000000E+00
  0.00000000E+00  0.00000000E+00  0.00000000E+00
  0.00000000E+00  0.00000000E+00  0.00000000E+00
