Au Hf Au O  C  H                        
   1.00000000000000     
     8.8458995818999995    0.0000000000000000    0.0000000000000000
     0.0000000000000000    8.8458995818999995    0.0000000000000000
     0.0000000000000000    0.0000000000000000   21.2549991608000006
   Au   Hf   Au   O    C    H 
    17     1    18     1     1     4
Selective dynamics
Direct
     0.0000000000000000    0.0000000000000000    0.0980900004383471   F   F   F
     0.9996809579251253    0.0002558663351428    0.3002861513181239   T   T   T
     0.1666699945381183    0.1666699945381183    0.0000000000000000   F   F   F
     0.1689424800238749    0.1698383223046941    0.2011825491765799   T   T   T
     0.3333300053544903    0.0000000000000000    0.0980900004383471   F   F   F
     0.3333335741274562    0.9955528553278958    0.2946631541407859   T   T   T
     0.5000000000056559    0.1666699945381183    0.0000000000000000   F   F   F
     0.4976969853211061    0.1698428418312793    0.2011764302980157   T   T   T
     0.6666700243881039    0.0000000000000000    0.0980900004383471   F   F   F
     0.6669981081883638    0.0001924622384169    0.3002810435284204   T   T   T
     0.8333299756288497    0.1666699945381183    0.0000000000000000   F   F   F
     0.8333123912636133    0.1681700763896462    0.1999396927812437   T   T   T
     0.0000000000000000    0.3333300053544903    0.0980900004383471   F   F   F
     0.0146525414301225    0.3334387494790764    0.3038622149771845   T   T   T
     0.1666699945381183    0.5000000000056559    0.0000000000000000   F   F   F
     0.1698839688606090    0.4956608279995161    0.2019050207355367   T   T   T
     0.3333300053544903    0.3333300053544903    0.0980900004383471   F   F   F
     0.3333348503873856    0.3462813948939560    0.3295794873803508   T   T   T
     0.5000000000056559    0.5000000000056559    0.0000000000000000   F   F   F
     0.4968017936550118    0.4956462900458583    0.2019015473855127   T   T   T
     0.6666700243881039    0.3333300053544903    0.0980900004383471   F   F   F
     0.6519821420954420    0.3333954407008863    0.3038725069922777   T   T   T
     0.8333299756288497    0.5000000000056559    0.0000000000000000   F   F   F
     0.8333404304919341    0.4975453048252907    0.1987232512978965   T   T   T
     0.0000000000000000    0.6666700243881039    0.0980900004383471   F   F   F
     0.9971766759956899    0.6656077592034996    0.2999945567040298   T   T   T
     0.1666699945381183    0.8333299756288497    0.0000000000000000   F   F   F
     0.1643697624558706    0.8314833624615950    0.1980997503903947   T   T   T
     0.3333300053544903    0.6666700243881039    0.0980900004383471   F   F   F
     0.3333343646779723    0.6692030183023899    0.2969479191846416   T   T   T
     0.5000000000056559    0.8333299756288497    0.0000000000000000   F   F   F
     0.5023251880463991    0.8314686157736302    0.1981023723385332   T   T   T
     0.6666700243881039    0.6666700243881039    0.0980900004383471   F   F   F
     0.6695027216403060    0.6655557416303726    0.2999910146070027   T   T   T
     0.8333299756288497    0.8333299756288497    0.0000000000000000   F   F   F
     0.8333533899465524    0.8336722687671588    0.1993615122731106   T   T   T
     0.3333571965441584    0.2082710908535594    0.3975696168465285   T   T   T
     0.3332889196004053    0.5312725759464315    0.4050427533861663   T   T   T
     0.3332885231323989    0.6550253303551031    0.4089055135545878   T   T   T
     0.2314703924148328    0.4919171228599423    0.4298632308183083   T   T   T
     0.4351221686483279    0.4919364261841541    0.4298637957846604   T   T   T
     0.3333298544776584    0.1435233651959196    0.4337386442314888   T   T   T
 
  0.00000000E+00  0.00000000E+00  0.00000000E+00
  0.00000000E+00  0.00000000E+00  0.00000000E+00
  0.00000000E+00  0.00000000E+00  0.00000000E+00
  0.00000000E+00  0.00000000E+00  0.00000000E+00
  0.00000000E+00  0.00000000E+00  0.00000000E+00
  0.00000000E+00  0.00000000E+00  0.00000000E+00
  0.00000000E+00  0.00000000E+00  0.00000000E+00
  0.00000000E+00  0.00000000E+00  0.00000000E+00
  0.00000000E+00  0.00000000E+00  0.00000000E+00
  0.00000000E+00  0.00000000E+00  0.00000000E+00
  0.00000000E+00  0.00000000E+00  0.00000000E+00
  0.00000000E+00  0.00000000E+00  0.00000000E+00
  0.00000000E+00  0.00000000E+00  0.00000000E+00
  0.00000000E+00  0.00000000E+00  0.00000000E+00
  0.00000000E+00  0.00000000E+00  0.00000000E+00
  0.00000000E+00  0.00000000E+00  0.00000000E+00
  0.00000000E+00  0.00000000E+00  0.00000000E+00
  0.00000000E+00  0.00000000E+00  0.00000000E+00
  0.00000000E+00  0.00000000E+00  0.00000000E+00
  0.00000000E+00  0.00000000E+00  0.00000000E+00
  0.00000000E+00  0.00000000E+00  0.00000000E+00
  0.00000000E+00  0.00000000E+00  0.00000000E+00
  0.00000000E+00  0.00000000E+00  0.00000000E+00
  0.00000000E+00  0.00000000E+00  0.00000000E+00
  0.00000000E+00  0.00000000E+00  0.00000000E+00
  0.00000000E+00  0.00000000E+00  0.00000000E+00
  0.00000000E+00  0.00000000E+00  0.00000000E+00
  0.00000000E+00  0.00000000E+00  0.00000000E+00
  0.00000000E+00  0.00000000E+00  0.00000000E+00
  0.00000000E+00  0.00000000E+00  0.00000000E+00
  0.00000000E+00  0.00000000E+00  0.00000000E+00
  0.00000000E+00  0.00000000E+00  0.00000000E+00
  0.00000000E+00  0.00000000E+00  0.00000000E+00
  0.00000000E+00  0.00000000E+00  0.00000000E+00
  0.00000000E+00  0.00000000E+00  0.00000000E+00
  0.00000000E+00  0.00000000E+00  0.00000000E+00
  0.00000000E+00  0.00000000E+00  0.00000000E+00
  0.00000000E+00  0.00000000E+00  0.00000000E+00
  0.00000000E+00  0.00000000E+00  0.00000000E+00
  0.00000000E+00  0.00000000E+00  0.00000000E+00
  0.00000000E+00  0.00000000E+00  0.00000000E+00
  0.00000000E+00  0.00000000E+00  0.00000000E+00
