Au Zn Au O  C  H 
 1.0000000000000000
    12.5100002288999992    0.0000000000000000    0.0000000000000000
     0.0000000000000000    8.8458995818999995    0.0000000000000000
     0.0000000000000000    0.0000000000000000   19.4230003356999994
 Au  Zn  Au  O   C   H  
  17   1  18   1   1   4
Selective dynamics
Cartesian
  0.0000000000000000  0.0000000000000000  1.4743999939999854   F   F   F
 12.5060941445788494 -0.0328580140343353  4.3648245021517047   T   T   T
  2.1036274929484700  1.3740842364201855  2.9438844514765190   T   T   T
  2.0850416710000439  1.4743460350000157  0.0000000000000000   F   F   F
  4.1699584439999997  0.0000000000000000  1.4743999939999854   F   F   F
  4.1509792795405289 -0.0604945193052131  4.3768640342404970   T   T   T
  6.1200025773214861  1.5260400490703248  3.2047581597472412   T   T   T
  6.2550001140000440  1.4743460350000157  0.0000000000000000   F   F   F
  8.3400421580000366  0.0000000000000000  1.4743999939999854   F   F   F
  8.3212210751367071  0.0512314032443132  4.2994555372575523   T   T   T
 10.4985414634407892  1.5174474614249094  3.1401840453277905   T   T   T
 10.4249581860000067  1.4743460350000157  0.0000000000000000   F   F   F
  0.0000000000000000  2.9486037550000104  1.4743999939999854   F   F   F
  0.2032621479230389  2.9486334125164997  4.3825092499500613   T   T   T
  2.1035664599407586  4.5231896630863435  2.9438681459668139   T   T   T
  2.0850416710000439  4.4229497910000317  0.0000000000000000   F   F   F
  4.1699584439999997  2.9486037550000104  1.4743999939999854   F   F   F
  4.0227413416435081  2.9486698296579079  4.2717923037909014   T   T   T
  6.1202343456447226  4.3713013121540065  3.2043155682697106   T   T   T
  6.2550001140000440  4.4229497910000317  0.0000000000000000   F   F   F
  8.3400421580000366  2.9486037550000104  1.4743999939999854   F   F   F
  8.3272186362204970  2.9486334542336365  4.3237916810957122   T   T   T
 10.4986236354339155  4.3796086586031580  3.1405253859016189   T   T   T
 10.4249581860000067  4.4229497910000317  0.0000000000000000   F   F   F
  0.0000000000000000  5.8972960899999904  1.4743999939999854   F   F   F
 12.5061153774138543  5.9301545924826184  4.3649332106683323   T   T   T
  2.0645963236267248  7.3715787137713358  3.0690650399731116   T   T   T
  2.0850416710000439  7.3715532829999786  0.0000000000000000   F   F   F
  4.1699584439999997  5.8972960899999904  1.4743999939999854   F   F   F
  4.1511847810414055  5.9577059335055296  4.3766927250970022   T   T   T
  6.2681866162915210  7.3716821824813961  3.0653811312507480   T   T   T
  6.2550001140000440  7.3715532829999786  0.0000000000000000   F   F   F
  8.3400421580000366  5.8972960899999904  1.4743999939999854   F   F   F
  8.3212496470085497  5.8461319370602540  4.2994437770688929   T   T   T
 10.3913221080141813  7.3714423486791754  3.0841084881947105   T   T   T
 10.4249581860000067  7.3715532829999786  0.0000000000000000   F   F   F
  2.3436221642183250  2.9486606368928867  5.1193859424024231   T   T   T
  4.0227413416435081  2.9486698296579075  7.6717923037909017   T   T   T
  4.9124485495631740  2.9486747005863201  7.0426743037909523   T   T   T
  4.0227364707150262  3.8383770375775743  8.3009103037908503   T   T   T
  4.0227462125719953  2.0589626217382366  8.3009103037908503   T   T   T
  3.1330341337238377  2.9486649587295006  7.0426743037909523   T   T   T
