Ag In Ag O  C  H                        
   1.00000000000000     
     8.8247003554999992    0.0000000000000000    0.0000000000000000
     0.0000000000000000    8.8247003554999992    0.0000000000000000
     0.0000000000000000    0.0000000000000000   21.2399997710999990
   Ag   In   Ag   O    C    H 
    17     1    18     1     1     4
Selective dynamics
Direct
     0.0000000000000000    0.0000000000000000    0.0979299992192182   F   F   F
     0.9972443679392753    0.9972613519839665    0.3000480349653092   T   T   T
     0.1666699946455736    0.1666699946455736    0.0000000000000000   F   F   F
     0.1665522296346886    0.1665515946631758    0.1978935557647664   T   T   T
     0.3333300053827557    0.0000000000000000    0.0979299992192182   F   F   F
     0.3315961836768602    0.0007248525810187    0.2994801167675207   T   T   T
     0.5000000000283293    0.1666699946455736    0.0000000000000000   F   F   F
     0.4991627420202748    0.1697509786332274    0.1993926007793643   T   T   T
     0.6666700243632988    0.0000000000000000    0.0979299992192182   F   F   F
     0.6667265097621896    0.9986781640067329    0.2980863743628242   T   T   T
     0.8333299756083719    0.1666699946455736    0.0000000000000000   F   F   F
     0.8334881656301431    0.1672263663379892    0.1995317551107004   T   T   T
     0.0000000000000000    0.3333300053827557    0.0979299992192182   F   F   F
     0.0007288585793949    0.3316140481210829    0.2994924128871876   T   T   T
     0.1666699946455736    0.5000000000283293    0.0000000000000000   F   F   F
     0.1697529589362354    0.4991484676558346    0.1993941731854962   T   T   T
     0.3333300053827557    0.3333300053827557    0.0979299992192182   F   F   F
     0.3234783282909383    0.3234780758393234    0.3166774393101617   T   T   T
     0.5000000000283293    0.5000000000283293    0.0000000000000000   F   F   F
     0.4998475532636094    0.4998496617370452    0.1976906022170088   T   T   T
     0.6666700243632988    0.3333300053827557    0.0979299992192182   F   F   F
     0.6790126082647230    0.3283649659576363    0.3000470823441128   T   T   T
     0.8333299756083719    0.5000000000283293    0.0000000000000000   F   F   F
     0.8340430055639865    0.4993159619951493    0.1988504608832998   T   T   T
     0.0000000000000000    0.6666700243632988    0.0979299992192182   F   F   F
     0.9986669961917329    0.6667395328580422    0.2980869678939130   T   T   T
     0.1666699946455736    0.8333299756083719    0.0000000000000000   F   F   F
     0.1672246600171945    0.8334768268410347    0.1995331713912325   T   T   T
     0.3333300053827557    0.6666700243632988    0.0979299992192182   F   F   F
     0.3283946197099974    0.6790024968931698    0.3000251379161795   T   T   T
     0.5000000000283293    0.8333299756083719    0.0000000000000000   F   F   F
     0.4993195046329405    0.8340534081411488    0.1988454505704765   T   T   T
     0.6666700243632988    0.6666700243632988    0.0979299992192182   F   F   F
     0.6690421882820150    0.6690286446941113    0.3007270528358056   T   T   T
     0.8333299756083719    0.8333299756083719    0.0000000000000000   F   F   F
     0.8315253259349327    0.8315184893387453    0.1989644546600437   T   T   T
     0.4867803367066503    0.4867682094384924    0.3400609773914340   T   T   T
     0.3169426079390532    0.3169437153963289    0.4933812666823693   T   T   T
     0.2472191298733016    0.2472204363888756    0.4623577785050622   T   T   T
     0.3861187693050881    0.2434186753428275    0.5229197069872843   T   T   T
     0.2434177603990431    0.3861188063680355    0.5229201376873469   T   T   T
     0.3901472597993287    0.3901492640367532    0.4653070594840390   T   T   T
 
  0.00000000E+00  0.00000000E+00  0.00000000E+00
  0.00000000E+00  0.00000000E+00  0.00000000E+00
  0.00000000E+00  0.00000000E+00  0.00000000E+00
  0.00000000E+00  0.00000000E+00  0.00000000E+00
  0.00000000E+00  0.00000000E+00  0.00000000E+00
  0.00000000E+00  0.00000000E+00  0.00000000E+00
  0.00000000E+00  0.00000000E+00  0.00000000E+00
  0.00000000E+00  0.00000000E+00  0.00000000E+00
  0.00000000E+00  0.00000000E+00  0.00000000E+00
  0.00000000E+00  0.00000000E+00  0.00000000E+00
  0.00000000E+00  0.00000000E+00  0.00000000E+00
  0.00000000E+00  0.00000000E+00  0.00000000E+00
  0.00000000E+00  0.00000000E+00  0.00000000E+00
  0.00000000E+00  0.00000000E+00  0.00000000E+00
  0.00000000E+00  0.00000000E+00  0.00000000E+00
  0.00000000E+00  0.00000000E+00  0.00000000E+00
  0.00000000E+00  0.00000000E+00  0.00000000E+00
  0.00000000E+00  0.00000000E+00  0.00000000E+00
  0.00000000E+00  0.00000000E+00  0.00000000E+00
  0.00000000E+00  0.00000000E+00  0.00000000E+00
  0.00000000E+00  0.00000000E+00  0.00000000E+00
  0.00000000E+00  0.00000000E+00  0.00000000E+00
  0.00000000E+00  0.00000000E+00  0.00000000E+00
  0.00000000E+00  0.00000000E+00  0.00000000E+00
  0.00000000E+00  0.00000000E+00  0.00000000E+00
  0.00000000E+00  0.00000000E+00  0.00000000E+00
  0.00000000E+00  0.00000000E+00  0.00000000E+00
  0.00000000E+00  0.00000000E+00  0.00000000E+00
  0.00000000E+00  0.00000000E+00  0.00000000E+00
  0.00000000E+00  0.00000000E+00  0.00000000E+00
  0.00000000E+00  0.00000000E+00  0.00000000E+00
  0.00000000E+00  0.00000000E+00  0.00000000E+00
  0.00000000E+00  0.00000000E+00  0.00000000E+00
  0.00000000E+00  0.00000000E+00  0.00000000E+00
  0.00000000E+00  0.00000000E+00  0.00000000E+00
  0.00000000E+00  0.00000000E+00  0.00000000E+00
  0.00000000E+00  0.00000000E+00  0.00000000E+00
  0.00000000E+00  0.00000000E+00  0.00000000E+00
  0.00000000E+00  0.00000000E+00  0.00000000E+00
  0.00000000E+00  0.00000000E+00  0.00000000E+00
  0.00000000E+00  0.00000000E+00  0.00000000E+00
  0.00000000E+00  0.00000000E+00  0.00000000E+00
