Pt C  H  O                              
   1.00000000000000     
     6.8935999870000000    0.0000000000000000    0.0000000000000000
     0.0000000000000000    8.4428997040000002    0.0000000000000000
     0.0000000000000000    0.0000000000000000   26.3738002776999991
   Pt   C    H    O 
    45     1     4     1
Selective dynamics
Direct
  0.9566999999999979  0.0239600000000024  0.0000000000000000   F   F   F
  0.2900300000000016  0.0239600000000024  0.1232200000000034   F   F   F
  0.6210527027325579  0.0221305679054048  0.2471075711240223   T   T   T
  0.9525758472299012  0.0219985853295271  0.3768630772500865   T   T   T
  0.6233599999999981  0.0239600000000024  0.0616100000000017   F   F   F
  0.9565285612084481  0.0234621992525895  0.1851287374102386   T   T   T
  0.2844468333265532  0.0221043041866021  0.3102054687177033   T   T   T
  0.6094506610392387  0.0151580509452569  0.4300195187512397   T   T   T
  0.2900300000000016  0.1906200000000027  0.0307999999999993   F   F   F
  0.6233599999999981  0.1906200000000027  0.1540200000000027   F   F   F
  0.9555745496274798  0.1899230330725762  0.2784368805074502   T   T   T
  0.2743424201911648  0.1892987993354435  0.4027967599533913   T   T   T
  0.9566999999999979  0.1906200000000027  0.0924100000000010   F   F   F
  0.2893176407884215  0.1901996555486630  0.2167340643476779   T   T   T
  0.6255660270978214  0.1892254278597613  0.3387225902558139   T   T   T
  0.9566999999999979  0.3572899999999990  0.0000000000000000   F   F   F
  0.2900300000000016  0.3572899999999990  0.1232200000000034   F   F   F
  0.6211544910793019  0.3581084150461774  0.2470903113957827   T   T   T
  0.9526383834406771  0.3565803248904826  0.3767061080690714   T   T   T
  0.6233599999999981  0.3572899999999990  0.0616100000000017   F   F   F
  0.9565883810623266  0.3573875667011441  0.1851299202944770   T   T   T
  0.2843929931652929  0.3573774387853915  0.3101073227501939   T   T   T
  0.6092466978196164  0.3627888347632036  0.4296456932535840   T   T   T
  0.2900300000000016  0.5239600000000024  0.0307999999999993   F   F   F
  0.6233599999999981  0.5239600000000024  0.1540200000000027   F   F   F
  0.9504684316025384  0.5237117225239973  0.2797378965774359   T   T   T
  0.2726159162996573  0.5227872254082324  0.4050018315960207   T   T   T
  0.9566999999999979  0.5239600000000024  0.0924100000000010   F   F   F
  0.2864820916505298  0.5242215745381908  0.2171740807454924   T   T   T
  0.6200210425245893  0.5224162515875136  0.3427098477805349   T   T   T
  0.9566999999999979  0.6906200000000027  0.0000000000000000   F   F   F
  0.2900300000000016  0.6906200000000027  0.1232200000000034   F   F   F
  0.6175923947229967  0.6901990840349149  0.2492883780165074   T   T   T
  0.9475427178376968  0.6893166518278852  0.3790502701071064   T   T   T
  0.6233599999999981  0.6906200000000027  0.0616100000000017   F   F   F
  0.9538952902837010  0.6904726144097775  0.1858719092841658   T   T   T
  0.2800592167448924  0.6898984804701304  0.3112839395406201   T   T   T
  0.6026410284493237  0.6889512321488012  0.4363299720444631   T   T   T
  0.2900300000000016  0.8572899999999990  0.0307999999999993   F   F   F
  0.6233599999999981  0.8572899999999990  0.1540200000000027   F   F   F
  0.9502007050371836  0.8563684050000511  0.2797970240240097   T   T   T
  0.2729275580174637  0.8555808516488023  0.4051712414055275   T   T   T
  0.9566999999999979  0.8572899999999990  0.0924100000000010   F   F   F
  0.2863718267045657  0.8563581658581604  0.2172184224523062   T   T   T
  0.6200266766318832  0.8561928813847983  0.3429898474356871   T   T   T
  0.6039453339457086  0.6766473245429485  0.5148270935066092   T   T   T
  0.7371938593684226  0.6148043782216918  0.5255128071833551   T   T   T
  0.4763857986268382  0.6111239348710271  0.5275211645365622   T   T   T
  0.7682342752005481  0.1898425682873545  0.5008908468222704   T   T   T
  0.6027537024995173  0.7971314851860988  0.5298841717573631   T   T   T
  0.6341501164690077  0.1896138661511743  0.4893804016708436   T   T   T
 
  0.00000000E+00  0.00000000E+00  0.00000000E+00
  0.00000000E+00  0.00000000E+00  0.00000000E+00
  0.00000000E+00  0.00000000E+00  0.00000000E+00
  0.00000000E+00  0.00000000E+00  0.00000000E+00
  0.00000000E+00  0.00000000E+00  0.00000000E+00
  0.00000000E+00  0.00000000E+00  0.00000000E+00
  0.00000000E+00  0.00000000E+00  0.00000000E+00
  0.00000000E+00  0.00000000E+00  0.00000000E+00
  0.00000000E+00  0.00000000E+00  0.00000000E+00
  0.00000000E+00  0.00000000E+00  0.00000000E+00
  0.00000000E+00  0.00000000E+00  0.00000000E+00
  0.00000000E+00  0.00000000E+00  0.00000000E+00
  0.00000000E+00  0.00000000E+00  0.00000000E+00
  0.00000000E+00  0.00000000E+00  0.00000000E+00
  0.00000000E+00  0.00000000E+00  0.00000000E+00
  0.00000000E+00  0.00000000E+00  0.00000000E+00
  0.00000000E+00  0.00000000E+00  0.00000000E+00
  0.00000000E+00  0.00000000E+00  0.00000000E+00
  0.00000000E+00  0.00000000E+00  0.00000000E+00
  0.00000000E+00  0.00000000E+00  0.00000000E+00
  0.00000000E+00  0.00000000E+00  0.00000000E+00
  0.00000000E+00  0.00000000E+00  0.00000000E+00
  0.00000000E+00  0.00000000E+00  0.00000000E+00
  0.00000000E+00  0.00000000E+00  0.00000000E+00
  0.00000000E+00  0.00000000E+00  0.00000000E+00
  0.00000000E+00  0.00000000E+00  0.00000000E+00
  0.00000000E+00  0.00000000E+00  0.00000000E+00
  0.00000000E+00  0.00000000E+00  0.00000000E+00
  0.00000000E+00  0.00000000E+00  0.00000000E+00
  0.00000000E+00  0.00000000E+00  0.00000000E+00
  0.00000000E+00  0.00000000E+00  0.00000000E+00
  0.00000000E+00  0.00000000E+00  0.00000000E+00
  0.00000000E+00  0.00000000E+00  0.00000000E+00
  0.00000000E+00  0.00000000E+00  0.00000000E+00
  0.00000000E+00  0.00000000E+00  0.00000000E+00
  0.00000000E+00  0.00000000E+00  0.00000000E+00
  0.00000000E+00  0.00000000E+00  0.00000000E+00
  0.00000000E+00  0.00000000E+00  0.00000000E+00
  0.00000000E+00  0.00000000E+00  0.00000000E+00
  0.00000000E+00  0.00000000E+00  0.00000000E+00
  0.00000000E+00  0.00000000E+00  0.00000000E+00
  0.00000000E+00  0.00000000E+00  0.00000000E+00
  0.00000000E+00  0.00000000E+00  0.00000000E+00
  0.00000000E+00  0.00000000E+00  0.00000000E+00
  0.00000000E+00  0.00000000E+00  0.00000000E+00
  0.00000000E+00  0.00000000E+00  0.00000000E+00
  0.00000000E+00  0.00000000E+00  0.00000000E+00
  0.00000000E+00  0.00000000E+00  0.00000000E+00
  0.00000000E+00  0.00000000E+00  0.00000000E+00
  0.00000000E+00  0.00000000E+00  0.00000000E+00
  0.00000000E+00  0.00000000E+00  0.00000000E+00
