Ag Mn Ag O  C  H                        
   1.00000000000000     
    12.4799995421999999    0.0000000000000000    0.0000000000000000
     0.0000000000000000    8.8247003554999992    0.0000000000000000
     0.0000000000000000    0.0000000000000000   19.4123001098999985
   Ag   Mn   Ag   O    C    H 
    16     1    19     1     1     4
Selective dynamics
Direct
  0.0102086899530028 -0.0026912911969944  0.2316664565277390   T   T   T
  0.1699752576516020  0.1717426350663509  0.1539218578247852   T   T   T
  0.1666699945754431  0.1666699946455736  0.0000000000000000   F   F   F
  0.0000000000000000  0.0000000000000000  0.0757699981286564   F   F   F
  0.3231536933819700  0.0004548842043349  0.2322627945018759   T   T   T
  0.4921777285170125  0.1649601819079339  0.1613756050047764   T   T   T
  0.4999999999919851  0.1666699946455736  0.0000000000000000   F   F   F
  0.3333300054165420  0.0000000000000000  0.0757699981286564   F   F   F
  0.6652166325669192 -0.0022932780797485  0.2279654602793062   T   T   T
  0.8368239444570309  0.1621624482539827  0.1580158838964021   T   T   T
  0.8333299756008401  0.1666699946455736  0.0000000000000000   F   F   F
  0.6666700243751222  0.0000000000000000  0.0757699981286564   F   F   F
  0.0012622070548949  0.3313895635629322  0.2285905845127116   T   T   T
  0.1693150691703291  0.4948683178575848  0.1568665349212436   T   T   T
  0.1666699945754431  0.5000000000283293  0.0000000000000000   F   F   F
  0.0000000000000000  0.3333300053827557  0.0757699981286564   F   F   F
  0.3327233642882108  0.3395370807825391  0.2225920894846951   T   T   T
  0.4971198936513782  0.4934042950412843  0.1577194177999279   T   T   T
  0.4999999999919851  0.5000000000283293  0.0000000000000000   F   F   F
  0.3333300054165420  0.3333300053827557  0.0757699981286564   F   F   F
  0.6671420660798054  0.3296916606100888  0.2277486470762621   T   T   T
  0.8337824493102820  0.4988184614638724  0.1567014633179202   T   T   T
  0.8333299756008401  0.5000000000283293  0.0000000000000000   F   F   F
  0.6666700243751222  0.3333300053827557  0.0757699981286564   F   F   F
  0.0032443848093594  0.6619539747383398  0.2281501913089427   T   T   T
  0.1683944882480979  0.8265327084843309  0.1505368277776324   T   T   T
  0.1666699945754431  0.8333299756083719  0.0000000000000000   F   F   F
  0.0000000000000000  0.6666700243632988  0.0757699981286564   F   F   F
  0.3322111200399494  0.6542056260599683  0.2302599879150173   T   T   T
  0.4947035450906272  0.8326605335881500  0.1580781399013149   T   T   T
  0.4999999999919851  0.8333299756083719  0.0000000000000000   F   F   F
  0.3333300054165420  0.6666700243632988  0.0757699981286564   F   F   F
  0.6646611164556019  0.6640328585937659  0.2270854192716892   T   T   T
  0.8366217632885796  0.8331408509960212  0.1585222150120230   T   T   T
  0.8333299756008401  0.8333299756083719  0.0000000000000000   F   F   F
  0.6666700243751222  0.6666700243632988  0.0757699981286564   F   F   F
  0.1647663371147490 -0.0389874557111942  0.2966479889381012   T   T   T
  0.3312345077774735  0.3881652960411969  0.3183202494386484   T   T   T
  0.3983756455380437  0.4327133767266815  0.3481817699028013   T   T   T
  0.2548021206905643  0.4090320578581231  0.3443685040634327   T   T   T
  0.3428988687751148  0.2588073535646274  0.3146421981703352   T   T   T
  0.1648803456740637  0.0330014301046195  0.3344948208674931   T   T   T
 
  0.00000000E+00  0.00000000E+00  0.00000000E+00
  0.00000000E+00  0.00000000E+00  0.00000000E+00
  0.00000000E+00  0.00000000E+00  0.00000000E+00
  0.00000000E+00  0.00000000E+00  0.00000000E+00
  0.00000000E+00  0.00000000E+00  0.00000000E+00
  0.00000000E+00  0.00000000E+00  0.00000000E+00
  0.00000000E+00  0.00000000E+00  0.00000000E+00
  0.00000000E+00  0.00000000E+00  0.00000000E+00
  0.00000000E+00  0.00000000E+00  0.00000000E+00
  0.00000000E+00  0.00000000E+00  0.00000000E+00
  0.00000000E+00  0.00000000E+00  0.00000000E+00
  0.00000000E+00  0.00000000E+00  0.00000000E+00
  0.00000000E+00  0.00000000E+00  0.00000000E+00
  0.00000000E+00  0.00000000E+00  0.00000000E+00
  0.00000000E+00  0.00000000E+00  0.00000000E+00
  0.00000000E+00  0.00000000E+00  0.00000000E+00
  0.00000000E+00  0.00000000E+00  0.00000000E+00
  0.00000000E+00  0.00000000E+00  0.00000000E+00
  0.00000000E+00  0.00000000E+00  0.00000000E+00
  0.00000000E+00  0.00000000E+00  0.00000000E+00
  0.00000000E+00  0.00000000E+00  0.00000000E+00
  0.00000000E+00  0.00000000E+00  0.00000000E+00
  0.00000000E+00  0.00000000E+00  0.00000000E+00
  0.00000000E+00  0.00000000E+00  0.00000000E+00
  0.00000000E+00  0.00000000E+00  0.00000000E+00
  0.00000000E+00  0.00000000E+00  0.00000000E+00
  0.00000000E+00  0.00000000E+00  0.00000000E+00
  0.00000000E+00  0.00000000E+00  0.00000000E+00
  0.00000000E+00  0.00000000E+00  0.00000000E+00
  0.00000000E+00  0.00000000E+00  0.00000000E+00
  0.00000000E+00  0.00000000E+00  0.00000000E+00
  0.00000000E+00  0.00000000E+00  0.00000000E+00
  0.00000000E+00  0.00000000E+00  0.00000000E+00
  0.00000000E+00  0.00000000E+00  0.00000000E+00
  0.00000000E+00  0.00000000E+00  0.00000000E+00
  0.00000000E+00  0.00000000E+00  0.00000000E+00
  0.00000000E+00  0.00000000E+00  0.00000000E+00
  0.00000000E+00  0.00000000E+00  0.00000000E+00
  0.00000000E+00  0.00000000E+00  0.00000000E+00
  0.00000000E+00  0.00000000E+00  0.00000000E+00
  0.00000000E+00  0.00000000E+00  0.00000000E+00
  0.00000000E+00  0.00000000E+00  0.00000000E+00
