Cu Ru Cu O  C  H                        
   1.00000000000000     
     7.7216000556999997    0.0000000000000000    0.0000000000000000
     0.0000000000000000    7.7216000556999997    0.0000000000000000
     0.0000000000000000    0.0000000000000000   20.4599990845000015
   Cu   Ru   Cu   O    C    H 
    17     1    18     1     1     4
Selective dynamics
Direct
  0.0000000000000000  0.0000000000000000  0.0889500007054593   F   F   F
  0.9905167919794927  0.9905244072778849  0.2687040337668560   T   T   T
  0.1666699946535033  0.1666699946535033  0.0000000000000000   F   F   F
  0.1675307086623668  0.1675281462502454  0.1782048942539361   T   T   T
  0.3333300053659229  0.0000000000000000  0.0889500007054593   F   F   F
  0.3354341550979219  0.9974256950447256  0.2679828589443813   T   T   T
  0.5000000000194262  0.1666699946535033  0.0000000000000000   F   F   F
  0.4976017906146729  0.1680625944114222  0.1807462382037228   T   T   T
  0.6666700243299957  0.0000000000000000  0.0889500007054593   F   F   F
  0.6641093238659962  0.9961330055964941  0.2672924237553404   T   T   T
  0.8333299755987795  0.1666699946535033  0.0000000000000000   F   F   F
  0.8357707104219643  0.1639354068123692  0.1794209983063011   T   T   T
  0.0000000000000000  0.3333300053659229  0.0889500007054593   F   F   F
  0.9974201600160839  0.3354217915138855  0.2679758284601462   T   T   T
  0.1666699946535033  0.5000000000194262  0.0000000000000000   F   F   F
  0.1680407078557410  0.4976119848894730  0.1807489487049911   T   T   T
  0.3333300053659229  0.3333300053659229  0.0889500007054593   F   F   F
  0.3469505777668306  0.3469568431618056  0.2804162071034241   T   T   T
  0.5000000000194262  0.5000000000194262  0.0000000000000000   F   F   F
  0.4984121404105022  0.4984298476364546  0.1800485580981459   T   T   T
  0.6666700243299957  0.3333300053659229  0.0889500007054593   F   F   F
  0.6737579848425495  0.3290365568899974  0.2669968269625986   T   T   T
  0.8333299755987795  0.5000000000194262  0.0000000000000000   F   F   F
  0.8339333794166562  0.4970105319554381  0.1797515380427855   T   T   T
  0.0000000000000000  0.6666700243299957  0.0889500007054593   F   F   F
  0.9961315640654647  0.6641127673123578  0.2672914456747848   T   T   T
  0.1666699946535033  0.8333299755987795  0.0000000000000000   F   F   F
  0.1639291428204366  0.8357758040658465  0.1794228468813292   T   T   T
  0.3333300053659229  0.6666700243299957  0.0889500007054593   F   F   F
  0.3290221426556952  0.6737662817522436  0.2669943808970646   T   T   T
  0.5000000000194262  0.8333299755987795  0.0000000000000000   F   F   F
  0.4970118786333746  0.8339616392873245  0.1797517204315720   T   T   T
  0.6666700243299957  0.6666700243299957  0.0889500007054593   F   F   F
  0.6619392777855182  0.6619461021503310  0.2669512144837637   T   T   T
  0.8333299755987795  0.8333299755987795  0.0000000000000000   F   F   F
  0.8321621272459643  0.8321722418455811  0.1795437483632637   T   T   T
  0.1606805581416522  0.1606737113352913  0.3268139055503834   T   T   T
  0.3988208863774408  0.3987999964326411  0.3806181656438873   T   T   T
  0.4966838771388444  0.4966837260715601  0.3911429184595824   T   T   T
  0.2754841722376628  0.4397629989941217  0.4023453046267643   T   T   T
  0.4397741490313603  0.2754926599654898  0.4023397297574815   T   T   T
  0.1631525603837112  0.1631538380793998  0.3743706244405146   T   T   T
 
  0.00000000E+00  0.00000000E+00  0.00000000E+00
  0.00000000E+00  0.00000000E+00  0.00000000E+00
  0.00000000E+00  0.00000000E+00  0.00000000E+00
  0.00000000E+00  0.00000000E+00  0.00000000E+00
  0.00000000E+00  0.00000000E+00  0.00000000E+00
  0.00000000E+00  0.00000000E+00  0.00000000E+00
  0.00000000E+00  0.00000000E+00  0.00000000E+00
  0.00000000E+00  0.00000000E+00  0.00000000E+00
  0.00000000E+00  0.00000000E+00  0.00000000E+00
  0.00000000E+00  0.00000000E+00  0.00000000E+00
  0.00000000E+00  0.00000000E+00  0.00000000E+00
  0.00000000E+00  0.00000000E+00  0.00000000E+00
  0.00000000E+00  0.00000000E+00  0.00000000E+00
  0.00000000E+00  0.00000000E+00  0.00000000E+00
  0.00000000E+00  0.00000000E+00  0.00000000E+00
  0.00000000E+00  0.00000000E+00  0.00000000E+00
  0.00000000E+00  0.00000000E+00  0.00000000E+00
  0.00000000E+00  0.00000000E+00  0.00000000E+00
  0.00000000E+00  0.00000000E+00  0.00000000E+00
  0.00000000E+00  0.00000000E+00  0.00000000E+00
  0.00000000E+00  0.00000000E+00  0.00000000E+00
  0.00000000E+00  0.00000000E+00  0.00000000E+00
  0.00000000E+00  0.00000000E+00  0.00000000E+00
  0.00000000E+00  0.00000000E+00  0.00000000E+00
  0.00000000E+00  0.00000000E+00  0.00000000E+00
  0.00000000E+00  0.00000000E+00  0.00000000E+00
  0.00000000E+00  0.00000000E+00  0.00000000E+00
  0.00000000E+00  0.00000000E+00  0.00000000E+00
  0.00000000E+00  0.00000000E+00  0.00000000E+00
  0.00000000E+00  0.00000000E+00  0.00000000E+00
  0.00000000E+00  0.00000000E+00  0.00000000E+00
  0.00000000E+00  0.00000000E+00  0.00000000E+00
  0.00000000E+00  0.00000000E+00  0.00000000E+00
  0.00000000E+00  0.00000000E+00  0.00000000E+00
  0.00000000E+00  0.00000000E+00  0.00000000E+00
  0.00000000E+00  0.00000000E+00  0.00000000E+00
  0.00000000E+00  0.00000000E+00  0.00000000E+00
  0.00000000E+00  0.00000000E+00  0.00000000E+00
  0.00000000E+00  0.00000000E+00  0.00000000E+00
  0.00000000E+00  0.00000000E+00  0.00000000E+00
  0.00000000E+00  0.00000000E+00  0.00000000E+00
  0.00000000E+00  0.00000000E+00  0.00000000E+00
