Ag Hf Ag O                              
   1.00000000000000     
     8.8247003554999992    0.0000000000000000    0.0000000000000000
    -4.4123501777999996    7.6424146886999997    0.0000000000000000
     0.0000000000000000    0.0000000000000000   22.2052993773999994
   Ag   Hf   Ag   O 
    17     1    18     1
Selective dynamics
Direct
     0.0000000000000000    0.0000000000000000    0.0000000000000000   F   F   F
     0.0049940209376070    0.0032916855322782    0.3238373232622859   T   T   T
     0.2248251672835318    0.1136581316791987    0.2168536011995729   T   T   T
     0.1111100018250966    0.2222200036476778    0.1081599965476912   F   F   F
     0.3333300053827557    0.0000000000000000    0.0000000000000000   F   F   F
     0.3374061868504056    0.0018393182801571    0.3241273769010953   T   T   T
     0.5573197965880404    0.1119988535417030    0.2162136198829418   T   T   T
     0.4444400072078523    0.2222200036476778    0.1081599965476912   F   F   F
     0.6666700243632988    0.0000000000000000    0.0000000000000000   F   F   F
     0.6719371197607885    0.0026801932610067    0.3240462957464290   T   T   T
     0.8904434946802998    0.1119012935703932    0.2158836279123638   T   T   T
     0.7777799963856893    0.2222200036476778    0.1081599965476912   F   F   F
     0.9999999999896119    0.3333300054715238    0.0000000000000000   F   F   F
     0.0046057135422422    0.3347393581399224    0.3238699351651425   T   T   T
     0.2245667494941029    0.4444707549458815    0.2167531627394153   T   T   T
     0.1111100017295215    0.5555599927438948    0.1081599965476912   F   F   F
     0.3333300054856849    0.3333300054715238    0.0000000000000000   F   F   F
     0.3405275977873869    0.3367875125626746    0.3450878335947901   T   T   T
     0.5546119248376686    0.4441030319685315    0.2176231397314941   T   T   T
     0.4444400072255874    0.5555599927438948    0.1081599965476912   F   F   F
     0.6666700244662280    0.3333300054715238    0.0000000000000000   F   F   F
     0.6726308749692125    0.3349080136119232    0.3236436063777685   T   T   T
     0.8909625908730420    0.4461465857759604    0.2152170931327905   T   T   T
     0.7777799964034244    0.5555599927438948    0.1081599965476912   F   F   F
     0.9999999999660858    0.6666700244012347    0.0000000000000000   F   F   F
     0.0052613744352114    0.6692574295442083    0.3225954134408808   T   T   T
     0.2235441097148602    0.7784250208806071    0.2155066723119594   T   T   T
     0.1111100017911895    0.8888900280489196    0.1081599965476912   F   F   F
     0.3333300054621589    0.6666700244012347    0.0000000000000000   F   F   F
     0.3371374770400536    0.6689455187516604    0.3239869575858935   T   T   T
     0.5573143075106173    0.7786191164161614    0.2161826564447353   T   T   T
     0.4444400072872554    0.8888900280489196    0.1081599965476912   F   F   F
     0.6666700244427020    0.6666700244012347    0.0000000000000000   F   F   F
     0.6727501531301636    0.6713790348409879    0.3237145711710300   T   T   T
     0.8909449326594538    0.7781241296101533    0.2152695032767926   T   T   T
     0.7777799964650924    0.8888900280489196    0.1081599965476912   F   F   F
     0.3828850094018512    0.3576320892395887    0.4232317479722646   T   T   T
 
  0.00000000E+00  0.00000000E+00  0.00000000E+00
  0.00000000E+00  0.00000000E+00  0.00000000E+00
  0.00000000E+00  0.00000000E+00  0.00000000E+00
  0.00000000E+00  0.00000000E+00  0.00000000E+00
  0.00000000E+00  0.00000000E+00  0.00000000E+00
  0.00000000E+00  0.00000000E+00  0.00000000E+00
  0.00000000E+00  0.00000000E+00  0.00000000E+00
  0.00000000E+00  0.00000000E+00  0.00000000E+00
  0.00000000E+00  0.00000000E+00  0.00000000E+00
  0.00000000E+00  0.00000000E+00  0.00000000E+00
  0.00000000E+00  0.00000000E+00  0.00000000E+00
  0.00000000E+00  0.00000000E+00  0.00000000E+00
  0.00000000E+00  0.00000000E+00  0.00000000E+00
  0.00000000E+00  0.00000000E+00  0.00000000E+00
  0.00000000E+00  0.00000000E+00  0.00000000E+00
  0.00000000E+00  0.00000000E+00  0.00000000E+00
  0.00000000E+00  0.00000000E+00  0.00000000E+00
  0.00000000E+00  0.00000000E+00  0.00000000E+00
  0.00000000E+00  0.00000000E+00  0.00000000E+00
  0.00000000E+00  0.00000000E+00  0.00000000E+00
  0.00000000E+00  0.00000000E+00  0.00000000E+00
  0.00000000E+00  0.00000000E+00  0.00000000E+00
  0.00000000E+00  0.00000000E+00  0.00000000E+00
  0.00000000E+00  0.00000000E+00  0.00000000E+00
  0.00000000E+00  0.00000000E+00  0.00000000E+00
  0.00000000E+00  0.00000000E+00  0.00000000E+00
  0.00000000E+00  0.00000000E+00  0.00000000E+00
  0.00000000E+00  0.00000000E+00  0.00000000E+00
  0.00000000E+00  0.00000000E+00  0.00000000E+00
  0.00000000E+00  0.00000000E+00  0.00000000E+00
  0.00000000E+00  0.00000000E+00  0.00000000E+00
  0.00000000E+00  0.00000000E+00  0.00000000E+00
  0.00000000E+00  0.00000000E+00  0.00000000E+00
  0.00000000E+00  0.00000000E+00  0.00000000E+00
  0.00000000E+00  0.00000000E+00  0.00000000E+00
  0.00000000E+00  0.00000000E+00  0.00000000E+00
  0.00000000E+00  0.00000000E+00  0.00000000E+00
