Cu Mn Cu O                              
   1.00000000000000     
    10.9200000762999991    0.0000000000000000    0.0000000000000000
     0.0000000000000000    7.7216000556999997    0.0000000000000000
     0.0000000000000000    0.0000000000000000   18.8607997894000015
   Cu   Mn   Cu   O 
    16     1    19     1
Selective dynamics
Direct
     0.0011163875570085    0.0000442693669169    0.1989407681101561   T   T   T
     0.1664200997517405    0.1687083403927312    0.1358758900684721   T   T   T
     0.1666699946229926    0.1666699946535033    0.0000000000000000   F   F   F
     0.0000000000000000    0.0000000000000000    0.0682300030947403   F   F   F
     0.3335596087097492    0.9990935244517970    0.2050361011080301   T   T   T
     0.4999478056645342    0.1687603484143195    0.1361285252642172   T   T   T
     0.4999999999862652    0.1666699946535033    0.0000000000000000   F   F   F
     0.3333300053632726    0.0000000000000000    0.0682300030947403   F   F   F
     0.6651392827686647    0.9998783455654501    0.1988594622297802   T   T   T
     0.8334817635279694    0.1668885162031676    0.1387923844958932   T   T   T
     0.8333299755876311    0.1666699946535033    0.0000000000000000   F   F   F
     0.6666700243711574    0.0000000000000000    0.0682300030947403   F   F   F
     0.0001464867301242    0.3339057653946066    0.1996455480106497   T   T   T
     0.1665712411013901    0.4991730098407127    0.1403087815524771   T   T   T
     0.1666699946229926    0.5000000000194262    0.0000000000000000   F   F   F
     0.0000000000000000    0.3333300053659229    0.0682300030947403   F   F   F
     0.3326235548550058    0.3340031345104396    0.2008880691326822   T   T   T
     0.4997422250960590    0.4987217658896109    0.1404128578015980   T   T   T
     0.4999999999862652    0.5000000000194262    0.0000000000000000   F   F   F
     0.3333300053632726    0.3333300053659229    0.0682300030947403   F   F   F
     0.6667891139247849    0.3337785731297748    0.1995464411217960   T   T   T
     0.8335065645704977    0.5002472431901465    0.1386294638522872   T   T   T
     0.8333299755876311    0.5000000000194262    0.0000000000000000   F   F   F
     0.6666700243711574    0.3333300053659229    0.0682300030947403   F   F   F
     0.9998214660454828    0.6674971046527304    0.1996012204370776   T   T   T
     0.1689107822057115    0.8333234702384349    0.1388910827904197   T   T   T
     0.1666699946229926    0.8333299755987795    0.0000000000000000   F   F   F
     0.0000000000000000    0.6666700243299957    0.0682300030947403   F   F   F
     0.3331089043803389    0.6605011402852067    0.2007368195292575   T   T   T
     0.4972983333910002    0.8335496639104500    0.1387983792336741   T   T   T
     0.4999999999862652    0.8333299755987795    0.0000000000000000   F   F   F
     0.3333300053632726    0.6666700243299957    0.0682300030947403   F   F   F
     0.6666075228994923    0.6672070688977281    0.1993111003843713   T   T   T
     0.8332518676564377    0.8337275605725882    0.1385960337764196   T   T   T
     0.8333299755876311    0.8333299755987795    0.0000000000000000   F   F   F
     0.6666700243711574    0.6666700243299957    0.0682300030947403   F   F   F
     0.3303789150417631    0.2060578075161455    0.2700452771216827   T   T   T
 
  0.00000000E+00  0.00000000E+00  0.00000000E+00
  0.00000000E+00  0.00000000E+00  0.00000000E+00
  0.00000000E+00  0.00000000E+00  0.00000000E+00
  0.00000000E+00  0.00000000E+00  0.00000000E+00
  0.00000000E+00  0.00000000E+00  0.00000000E+00
  0.00000000E+00  0.00000000E+00  0.00000000E+00
  0.00000000E+00  0.00000000E+00  0.00000000E+00
  0.00000000E+00  0.00000000E+00  0.00000000E+00
  0.00000000E+00  0.00000000E+00  0.00000000E+00
  0.00000000E+00  0.00000000E+00  0.00000000E+00
  0.00000000E+00  0.00000000E+00  0.00000000E+00
  0.00000000E+00  0.00000000E+00  0.00000000E+00
  0.00000000E+00  0.00000000E+00  0.00000000E+00
  0.00000000E+00  0.00000000E+00  0.00000000E+00
  0.00000000E+00  0.00000000E+00  0.00000000E+00
  0.00000000E+00  0.00000000E+00  0.00000000E+00
  0.00000000E+00  0.00000000E+00  0.00000000E+00
  0.00000000E+00  0.00000000E+00  0.00000000E+00
  0.00000000E+00  0.00000000E+00  0.00000000E+00
  0.00000000E+00  0.00000000E+00  0.00000000E+00
  0.00000000E+00  0.00000000E+00  0.00000000E+00
  0.00000000E+00  0.00000000E+00  0.00000000E+00
  0.00000000E+00  0.00000000E+00  0.00000000E+00
  0.00000000E+00  0.00000000E+00  0.00000000E+00
  0.00000000E+00  0.00000000E+00  0.00000000E+00
  0.00000000E+00  0.00000000E+00  0.00000000E+00
  0.00000000E+00  0.00000000E+00  0.00000000E+00
  0.00000000E+00  0.00000000E+00  0.00000000E+00
  0.00000000E+00  0.00000000E+00  0.00000000E+00
  0.00000000E+00  0.00000000E+00  0.00000000E+00
  0.00000000E+00  0.00000000E+00  0.00000000E+00
  0.00000000E+00  0.00000000E+00  0.00000000E+00
  0.00000000E+00  0.00000000E+00  0.00000000E+00
  0.00000000E+00  0.00000000E+00  0.00000000E+00
  0.00000000E+00  0.00000000E+00  0.00000000E+00
  0.00000000E+00  0.00000000E+00  0.00000000E+00
  0.00000000E+00  0.00000000E+00  0.00000000E+00
