Ag   Rh   Ag   C    H    O              
   1.00000000000000     
     8.8247003554999992    0.0000000000000000    0.0000000000000000
    -4.4123501777999996    7.6424146886999997    0.0000000000000000
     0.0000000000000000    0.0000000000000000   22.2052993773999994
   Ag   Rh   Ag   C    H    O 
    17     1    18     1     4     1
Selective dynamics
Direct
  0.0000000000000000  0.0000000000000000  0.0000000000000000   F   F   F
  0.0012305064752500  0.9989676034003836  0.3278313353791197   T   T   T
  0.2226511850960568  0.1165383621673011  0.2185589748474792   T   T   T
  0.1111100018250966  0.2222200036476778  0.1081599965476912   F   F   F
  0.3333300053827557  0.0000000000000000  0.0000000000000000   F   F   F
  0.3320516986116634  0.0109288687640346  0.3262622821355990   T   T   T
  0.5552586431235870  0.1114586525036880  0.2170126453735683   T   T   T
  0.4444400072078523  0.2222200036476778  0.1081599965476912   F   F   F
  0.6666700243632988  0.0000000000000000  0.0000000000000000   F   F   F
  0.6657439786323525  0.0010960454493330  0.3246920412467763   T   T   T
  0.8887655120626997  0.1116919866167986  0.2165025584540266   T   T   T
  0.7777799963856893  0.2222200036476778  0.1081599965476912   F   F   F
  0.9999999999896119  0.3333300054715238  0.0000000000000000   F   F   F
  0.9791558685510647  0.3165433692787389  0.3241999930820111   T   T   T
  0.2226590123766383  0.4440698413158500  0.2197084078167400   T   T   T
  0.1111100017295215  0.5555599927438948  0.1081599965476912   F   F   F
  0.3333300054856849  0.3333300054715238  0.0000000000000000   F   F   F
  0.3275960809219171  0.3392655823768694  0.3297477291556993   T   T   T
  0.5502965769010322  0.4441029519846686  0.2185583295292921   T   T   T
  0.4444400072255874  0.5555599927438948  0.1081599965476912   F   F   F
  0.6666700244662280  0.3333300054715238  0.0000000000000000   F   F   F
  0.6559173219826561  0.3348253961417555  0.3263342940072950   T   T   T
  0.8871243180883803  0.4457866879418748  0.2176860490968741   T   T   T
  0.7777799964034244  0.5555599927438948  0.1081599965476912   F   F   F
  0.9999999999660858  0.6666700244012347  0.0000000000000000   F   F   F
  0.0023287804287515  0.6644794811868743  0.3317302833412123   T   T   T
  0.2209122271826539  0.7795828066664183  0.2176655116091347   T   T   T
  0.1111100017911895  0.8888900280489196  0.1081599965476912   F   F   F
  0.3333300054621589  0.6666700244012347  0.0000000000000000   F   F   F
  0.3502283772017475  0.6876196194144353  0.3241651261512257   T   T   T
  0.5550409697230415  0.7779442915157559  0.2164982535899332   T   T   T
  0.4444400072872554  0.8888900280489196  0.1081599965476912   F   F   F
  0.6666700244427020  0.6666700244012347  0.0000000000000000   F   F   F
  0.6679522234973088  0.6657237317518726  0.3278231186777276   T   T   T
  0.8904352139859867  0.7763395144491838  0.2189026846466554   T   T   T
  0.7777799964650924  0.8888900280489196  0.1081599965476912   F   F   F
  0.3149512539665765  0.3516391702828812  0.4357279302492361   T   T   T
  0.4054056423496625  0.4652699549276542  0.4623420397518854   T   T   T
  0.2012258935385474  0.2608058664931387  0.4622291767598713   T   T   T
  0.3848421408257118  0.2821751987539167  0.4229863592604862   T   T   T
  0.2413277897316208  0.4254156651684773  0.4061555796039357   T   T   T
  0.1571700783326828  0.5096724492384396  0.3885729591198274   T   T   T
 
  0.00000000E+00  0.00000000E+00  0.00000000E+00
  0.00000000E+00  0.00000000E+00  0.00000000E+00
  0.00000000E+00  0.00000000E+00  0.00000000E+00
  0.00000000E+00  0.00000000E+00  0.00000000E+00
  0.00000000E+00  0.00000000E+00  0.00000000E+00
  0.00000000E+00  0.00000000E+00  0.00000000E+00
  0.00000000E+00  0.00000000E+00  0.00000000E+00
  0.00000000E+00  0.00000000E+00  0.00000000E+00
  0.00000000E+00  0.00000000E+00  0.00000000E+00
  0.00000000E+00  0.00000000E+00  0.00000000E+00
  0.00000000E+00  0.00000000E+00  0.00000000E+00
  0.00000000E+00  0.00000000E+00  0.00000000E+00
  0.00000000E+00  0.00000000E+00  0.00000000E+00
  0.00000000E+00  0.00000000E+00  0.00000000E+00
  0.00000000E+00  0.00000000E+00  0.00000000E+00
  0.00000000E+00  0.00000000E+00  0.00000000E+00
  0.00000000E+00  0.00000000E+00  0.00000000E+00
  0.00000000E+00  0.00000000E+00  0.00000000E+00
  0.00000000E+00  0.00000000E+00  0.00000000E+00
  0.00000000E+00  0.00000000E+00  0.00000000E+00
  0.00000000E+00  0.00000000E+00  0.00000000E+00
  0.00000000E+00  0.00000000E+00  0.00000000E+00
  0.00000000E+00  0.00000000E+00  0.00000000E+00
  0.00000000E+00  0.00000000E+00  0.00000000E+00
  0.00000000E+00  0.00000000E+00  0.00000000E+00
  0.00000000E+00  0.00000000E+00  0.00000000E+00
  0.00000000E+00  0.00000000E+00  0.00000000E+00
  0.00000000E+00  0.00000000E+00  0.00000000E+00
  0.00000000E+00  0.00000000E+00  0.00000000E+00
  0.00000000E+00  0.00000000E+00  0.00000000E+00
  0.00000000E+00  0.00000000E+00  0.00000000E+00
  0.00000000E+00  0.00000000E+00  0.00000000E+00
  0.00000000E+00  0.00000000E+00  0.00000000E+00
  0.00000000E+00  0.00000000E+00  0.00000000E+00
  0.00000000E+00  0.00000000E+00  0.00000000E+00
  0.00000000E+00  0.00000000E+00  0.00000000E+00
  0.00000000E+00  0.00000000E+00  0.00000000E+00
  0.00000000E+00  0.00000000E+00  0.00000000E+00
  0.00000000E+00  0.00000000E+00  0.00000000E+00
  0.00000000E+00  0.00000000E+00  0.00000000E+00
  0.00000000E+00  0.00000000E+00  0.00000000E+00
  0.00000000E+00  0.00000000E+00  0.00000000E+00
