Pt                                      
   1.00000000000000     
     8.4428997040000002    0.0000000000000000    0.0000000000000000
     0.0000000000000000    8.4428997040000002    0.0000000000000000
     0.0000000000000000    0.0000000000000000   20.9699993133999989
   Pt
    36
Selective dynamics
Direct
  0.0000000000000000  0.0000000000000000  0.0948999970986364   F   F   F
 -0.0000075031242052 -0.0000021379197516  0.2843531346565271   T   T   T
  0.1666699945912313  0.1666699945912313  0.0000000000000000   F   F   F
  0.1666662136646356  0.1666671283212137  0.1900895071736804   T   T   T
  0.3333300054087687  0.0000000000000000  0.0948999970986364   F   F   F
  0.3333399660427316 -0.0000145657541531  0.2843616484218269   T   T   T
  0.5000000000000000  0.1666699945912313  0.0000000000000000   F   F   F
  0.5000035869151658  0.1666660917964204  0.1900912983312387   T   T   T
  0.6666700244388011  0.0000000000000000  0.0948999970986364   F   F   F
  0.6666670889415400 -0.0000005421205883  0.2843525709761784   T   T   T
  0.8333299755611989  0.1666699945912313  0.0000000000000000   F   F   F
  0.8333315656219858  0.1666681381436040  0.1900931780555855   T   T   T
  0.0000000000000000  0.3333300054087687  0.0948999970986364   F   F   F
 -0.0000036290105406  0.3333364720862736  0.2843531755654839   T   T   T
  0.1666699945912313  0.5000000000000000  0.0000000000000000   F   F   F
  0.1666692363096493  0.5000095812700837  0.1900928833405842   T   T   T
  0.3333300054087687  0.3333300054087687  0.0948999970986364   F   F   F
  0.3333348799585106  0.3333465605176521  0.2843599719718634   T   T   T
  0.5000000000000000  0.5000000000000000  0.0000000000000000   F   F   F
  0.4999980438775441  0.5000072807315092  0.1900921995913665   T   T   T
  0.6666700244388011  0.3333300054087687  0.0948999970986364   F   F   F
  0.6666690433276223  0.3333296963852623  0.2843515786936719   T   T   T
  0.8333299755611989  0.5000000000000000  0.0000000000000000   F   F   F
  0.8333337527274530  0.5000028693529970  0.1900908468924250   T   T   T
  0.0000000000000000  0.6666700244388011  0.0948999970986364   F   F   F
  0.0000098250087480  0.6666658031532574  0.2843525245559893   T   T   T
  0.1666699945912313  0.8333299755611989  0.0000000000000000   F   F   F
  0.1666695130200692  0.8333228870180777  0.1900902617905272   T   T   T
  0.3333300054087687  0.6666700244388011  0.0948999970986364   F   F   F
  0.3333320894268789  0.6666680723802693  0.2843497159009830   T   T   T
  0.5000000000000000  0.8333299755611989  0.0000000000000000   F   F   F
  0.4999969213442759  0.8333256345835232  0.1900959374357441   T   T   T
  0.6666700244388011  0.6666700244388011  0.0948999970986364   F   F   F
  0.6666594993840518  0.6666708713311139  0.2843606902078178   T   T   T
  0.8333299755611989  0.8333299755611989  0.0000000000000000   F   F   F
  0.8333319095239475  0.8333294067727829  0.1900914139570910   T   T   T
 
  0.00000000E+00  0.00000000E+00  0.00000000E+00
  0.00000000E+00  0.00000000E+00  0.00000000E+00
  0.00000000E+00  0.00000000E+00  0.00000000E+00
  0.00000000E+00  0.00000000E+00  0.00000000E+00
  0.00000000E+00  0.00000000E+00  0.00000000E+00
  0.00000000E+00  0.00000000E+00  0.00000000E+00
  0.00000000E+00  0.00000000E+00  0.00000000E+00
  0.00000000E+00  0.00000000E+00  0.00000000E+00
  0.00000000E+00  0.00000000E+00  0.00000000E+00
  0.00000000E+00  0.00000000E+00  0.00000000E+00
  0.00000000E+00  0.00000000E+00  0.00000000E+00
  0.00000000E+00  0.00000000E+00  0.00000000E+00
  0.00000000E+00  0.00000000E+00  0.00000000E+00
  0.00000000E+00  0.00000000E+00  0.00000000E+00
  0.00000000E+00  0.00000000E+00  0.00000000E+00
  0.00000000E+00  0.00000000E+00  0.00000000E+00
  0.00000000E+00  0.00000000E+00  0.00000000E+00
  0.00000000E+00  0.00000000E+00  0.00000000E+00
  0.00000000E+00  0.00000000E+00  0.00000000E+00
  0.00000000E+00  0.00000000E+00  0.00000000E+00
  0.00000000E+00  0.00000000E+00  0.00000000E+00
  0.00000000E+00  0.00000000E+00  0.00000000E+00
  0.00000000E+00  0.00000000E+00  0.00000000E+00
  0.00000000E+00  0.00000000E+00  0.00000000E+00
  0.00000000E+00  0.00000000E+00  0.00000000E+00
  0.00000000E+00  0.00000000E+00  0.00000000E+00
  0.00000000E+00  0.00000000E+00  0.00000000E+00
  0.00000000E+00  0.00000000E+00  0.00000000E+00
  0.00000000E+00  0.00000000E+00  0.00000000E+00
  0.00000000E+00  0.00000000E+00  0.00000000E+00
  0.00000000E+00  0.00000000E+00  0.00000000E+00
  0.00000000E+00  0.00000000E+00  0.00000000E+00
  0.00000000E+00  0.00000000E+00  0.00000000E+00
  0.00000000E+00  0.00000000E+00  0.00000000E+00
  0.00000000E+00  0.00000000E+00  0.00000000E+00
  0.00000000E+00  0.00000000E+00  0.00000000E+00
