Rh                                      
   1.00000000000000     
     8.1670999526999992    0.0000000000000000    0.0000000000000000
     0.0000000000000000    8.1670999526999992    0.0000000000000000
     0.0000000000000000    0.0000000000000000   20.7749996185000008
   Rh
    36
Selective dynamics
Direct
  0.0000000000000000  0.0000000000000000  0.0926600024235782   F   F   F
  0.0000022903650937 -0.0000014482382599  0.2774980856115206   T   T   T
  0.1666699945982657  0.1666699945982657  0.0000000000000000   F   F   F
  0.1666882138294489  0.1666908465178071  0.1862094856552750   T   T   T
  0.3333300053588815  0.0000000000000000  0.0926600024235782   F   F   F
  0.3333771129376887 -0.0000005663464320  0.2774724253474114   T   T   T
  0.4999999999571472  0.1666699945982657  0.0000000000000000   F   F   F
  0.4999997991075043  0.1666103517007490  0.1862156597038432   T   T   T
  0.6666700244313759  0.0000000000000000  0.0926600024235782   F   F   F
  0.6666204087220373 -0.0000009643033296  0.2774754024903296   T   T   T
  0.8333299755624992  0.1666699945982657  0.0000000000000000   F   F   F
  0.8333116223565643  0.1666901007621943  0.1862080526240681   T   T   T
  0.0000000000000000  0.3333300053588815  0.0926600024235782   F   F   F
  0.0000016583329331  0.3333791111155002  0.2774734888747306   T   T   T
  0.1666699945982657  0.4999999999571472  0.0000000000000000   F   F   F
  0.1666109321054267  0.4999999332825210  0.1862164307552349   T   T   T
  0.3333300053588815  0.3333300053588815  0.0926600024235782   F   F   F
  0.3333086016984743  0.3333090146474697  0.2774630807315143   T   T   T
  0.4999999999571472  0.4999999999571472  0.0000000000000000   F   F   F
  0.4999975655085964  0.5000005276325230  0.1862117964762142   T   T   T
  0.6666700244313759  0.3333300053588815  0.0926600024235782   F   F   F
  0.6666895421928009  0.3333098654858324  0.2774653381468485   T   T   T
  0.8333299755624992  0.4999999999571472  0.0000000000000000   F   F   F
  0.8333914836983028  0.4999992736781324  0.1862159619465870   T   T   T
  0.0000000000000000  0.6666700244313759  0.0926600024235782   F   F   F
  0.0000018637035093  0.6666225775546013  0.2774710066096030   T   T   T
  0.1666699945982657  0.8333299755624992  0.0000000000000000   F   F   F
  0.1666904200046940  0.8333093750860165  0.1862115101204316   T   T   T
  0.3333300053588815  0.6666700244313759  0.0926600024235782   F   F   F
  0.3333078200999807  0.6666914534412793  0.2774636798079451   T   T   T
  0.4999999999571472  0.8333299755624992  0.0000000000000000   F   F   F
  0.4999991255608436  0.8333890325949891  0.1862161755461739   T   T   T
  0.6666700244313759  0.6666700244313759  0.0926600024235782   F   F   F
  0.6666904184209943  0.6666911259642252  0.2774638921094270   T   T   T
  0.8333299755624992  0.8333299755624992  0.0000000000000000   F   F   F
  0.8333105396963014  0.8333111286887691  0.1862098581422416   T   T   T
 
  0.00000000E+00  0.00000000E+00  0.00000000E+00
  0.00000000E+00  0.00000000E+00  0.00000000E+00
  0.00000000E+00  0.00000000E+00  0.00000000E+00
  0.00000000E+00  0.00000000E+00  0.00000000E+00
  0.00000000E+00  0.00000000E+00  0.00000000E+00
  0.00000000E+00  0.00000000E+00  0.00000000E+00
  0.00000000E+00  0.00000000E+00  0.00000000E+00
  0.00000000E+00  0.00000000E+00  0.00000000E+00
  0.00000000E+00  0.00000000E+00  0.00000000E+00
  0.00000000E+00  0.00000000E+00  0.00000000E+00
  0.00000000E+00  0.00000000E+00  0.00000000E+00
  0.00000000E+00  0.00000000E+00  0.00000000E+00
  0.00000000E+00  0.00000000E+00  0.00000000E+00
  0.00000000E+00  0.00000000E+00  0.00000000E+00
  0.00000000E+00  0.00000000E+00  0.00000000E+00
  0.00000000E+00  0.00000000E+00  0.00000000E+00
  0.00000000E+00  0.00000000E+00  0.00000000E+00
  0.00000000E+00  0.00000000E+00  0.00000000E+00
  0.00000000E+00  0.00000000E+00  0.00000000E+00
  0.00000000E+00  0.00000000E+00  0.00000000E+00
  0.00000000E+00  0.00000000E+00  0.00000000E+00
  0.00000000E+00  0.00000000E+00  0.00000000E+00
  0.00000000E+00  0.00000000E+00  0.00000000E+00
  0.00000000E+00  0.00000000E+00  0.00000000E+00
  0.00000000E+00  0.00000000E+00  0.00000000E+00
  0.00000000E+00  0.00000000E+00  0.00000000E+00
  0.00000000E+00  0.00000000E+00  0.00000000E+00
  0.00000000E+00  0.00000000E+00  0.00000000E+00
  0.00000000E+00  0.00000000E+00  0.00000000E+00
  0.00000000E+00  0.00000000E+00  0.00000000E+00
  0.00000000E+00  0.00000000E+00  0.00000000E+00
  0.00000000E+00  0.00000000E+00  0.00000000E+00
  0.00000000E+00  0.00000000E+00  0.00000000E+00
  0.00000000E+00  0.00000000E+00  0.00000000E+00
  0.00000000E+00  0.00000000E+00  0.00000000E+00
  0.00000000E+00  0.00000000E+00  0.00000000E+00
