Rh   C    H    O                        
   1.00000000000000     
     8.1670999526999992    0.0000000000000000    0.0000000000000000
     0.0000000000000000    8.1670999526999992    0.0000000000000000
     0.0000000000000000    0.0000000000000000   20.7749996185000008
   Rh   C    H    O 
    36     1     4     1
Selective dynamics
Direct
  0.0000000000000000  0.0000000000000000  0.0926600024235782   F   F   F
  0.9986718877498119  0.9986271335052901  0.2765192064323798   T   T   T
  0.1666699945982657  0.1666699945982657  0.0000000000000000   F   F   F
  0.1664738161542584  0.1678435282428168  0.1862787986319849   T   T   T
  0.3333300053588815  0.0000000000000000  0.0926600024235782   F   F   F
  0.3239988016944804  0.9952698898939093  0.2761451277898412   T   T   T
  0.4999999999571472  0.1666699945982657  0.0000000000000000   F   F   F
  0.4974217732695321  0.1678219165268045  0.1869446976924281   T   T   T
  0.6666700244313759  0.0000000000000000  0.0926600024235782   F   F   F
  0.6634339951429710 -0.0006040011928933  0.2829203152552230   T   T   T
  0.8333299755624992  0.1666699945982657  0.0000000000000000   F   F   F
  0.8331561509807889  0.1678978627986713  0.1855615757820441   T   T   T
  0.0000000000000000  0.3333300053588815  0.0926600024235782   F   F   F
  0.0011898944699877  0.3361001098633325  0.2763233131931243   T   T   T
  0.1666699945982657  0.4999999999571472  0.0000000000000000   F   F   F
  0.1693597743335549  0.4986433959758587  0.1863796975462803   T   T   T
  0.3333300053588815  0.3333300053588815  0.0926600024235782   F   F   F
  0.3276786411795787  0.3340386892498279  0.2837067647802565   T   T   T
  0.4999999999571472  0.4999999999571472  0.0000000000000000   F   F   F
  0.5013048140825579  0.4986973808038688  0.1871430502063915   T   T   T
  0.6666700244313759  0.3333300053588815  0.0926600024235782   F   F   F
  0.6720937855925272  0.3410065930733119  0.2804838565313031   T   T   T
  0.8333299755624992  0.4999999999571472  0.0000000000000000   F   F   F
  0.8333038012547466  0.5001597098899558  0.1862828422482843   T   T   T
  0.0000000000000000  0.6666700244313759  0.0926600024235782   F   F   F
  0.9997902582749331  0.6686197039447285  0.2772482648124215   T   T   T
  0.1666699945982657  0.8333299755624992  0.0000000000000000   F   F   F
  0.1656338562685790  0.8319243485414722  0.1849694722802353   T   T   T
  0.3333300053588815  0.6666700244313759  0.0926600024235782   F   F   F
  0.3315745609714790  0.6673577254317877  0.2767887766794233   T   T   T
  0.4999999999571472  0.8333299755624992  0.0000000000000000   F   F   F
  0.5007613080907343  0.8354199300556352  0.1867530902875399   T   T   T
  0.6666700244313759  0.6666700244313759  0.0926600024235782   F   F   F
  0.6679997939967206  0.6688422478105320  0.2774764445673871   T   T   T
  0.8333299755624992  0.8333299755624992  0.0000000000000000   F   F   F
  0.8294143873650590  0.8360836037220126  0.1867102006000037   T   T   T
  0.3462739793749933  0.3120161998658776  0.3933580695470318   T   T   T
  0.4415444612259496  0.3664164615915058  0.4236166435915231   T   T   T
  0.2917233790350757  0.2053088664342046  0.4165467066852778   T   T   T
  0.4716029911833515  0.2354267627322141  0.3586436616867975   T   T   T
  0.2510853041816175  0.4061230376035153  0.3880216208894319   T   T   T
  0.6167845952844883  0.1736385675442734  0.3483744377732114   T   T   T
 
  0.00000000E+00  0.00000000E+00  0.00000000E+00
  0.00000000E+00  0.00000000E+00  0.00000000E+00
  0.00000000E+00  0.00000000E+00  0.00000000E+00
  0.00000000E+00  0.00000000E+00  0.00000000E+00
  0.00000000E+00  0.00000000E+00  0.00000000E+00
  0.00000000E+00  0.00000000E+00  0.00000000E+00
  0.00000000E+00  0.00000000E+00  0.00000000E+00
  0.00000000E+00  0.00000000E+00  0.00000000E+00
  0.00000000E+00  0.00000000E+00  0.00000000E+00
  0.00000000E+00  0.00000000E+00  0.00000000E+00
  0.00000000E+00  0.00000000E+00  0.00000000E+00
  0.00000000E+00  0.00000000E+00  0.00000000E+00
  0.00000000E+00  0.00000000E+00  0.00000000E+00
  0.00000000E+00  0.00000000E+00  0.00000000E+00
  0.00000000E+00  0.00000000E+00  0.00000000E+00
  0.00000000E+00  0.00000000E+00  0.00000000E+00
  0.00000000E+00  0.00000000E+00  0.00000000E+00
  0.00000000E+00  0.00000000E+00  0.00000000E+00
  0.00000000E+00  0.00000000E+00  0.00000000E+00
  0.00000000E+00  0.00000000E+00  0.00000000E+00
  0.00000000E+00  0.00000000E+00  0.00000000E+00
  0.00000000E+00  0.00000000E+00  0.00000000E+00
  0.00000000E+00  0.00000000E+00  0.00000000E+00
  0.00000000E+00  0.00000000E+00  0.00000000E+00
  0.00000000E+00  0.00000000E+00  0.00000000E+00
  0.00000000E+00  0.00000000E+00  0.00000000E+00
  0.00000000E+00  0.00000000E+00  0.00000000E+00
  0.00000000E+00  0.00000000E+00  0.00000000E+00
  0.00000000E+00  0.00000000E+00  0.00000000E+00
  0.00000000E+00  0.00000000E+00  0.00000000E+00
  0.00000000E+00  0.00000000E+00  0.00000000E+00
  0.00000000E+00  0.00000000E+00  0.00000000E+00
  0.00000000E+00  0.00000000E+00  0.00000000E+00
  0.00000000E+00  0.00000000E+00  0.00000000E+00
  0.00000000E+00  0.00000000E+00  0.00000000E+00
  0.00000000E+00  0.00000000E+00  0.00000000E+00
  0.00000000E+00  0.00000000E+00  0.00000000E+00
  0.00000000E+00  0.00000000E+00  0.00000000E+00
  0.00000000E+00  0.00000000E+00  0.00000000E+00
  0.00000000E+00  0.00000000E+00  0.00000000E+00
  0.00000000E+00  0.00000000E+00  0.00000000E+00
  0.00000000E+00  0.00000000E+00  0.00000000E+00
