Au Ge Au O                              
   1.00000000000000     
    12.5100002288999992    0.0000000000000000    0.0000000000000000
     0.0000000000000000    8.8458995818999995    0.0000000000000000
     0.0000000000000000    0.0000000000000000   19.4230003356999994
   Au   Ge   Au   O 
    17     1    18     1
Selective dynamics
Direct
     0.0000000000000000    0.0000000000000000    0.0759100019830612   F   F   F
     0.0031540597319647    0.9938775181617526    0.2226399549308447   T   T   T
     0.1678326075412080    0.1630626842370761    0.1546792362896200   T   T   T
     0.1666699946322368    0.1666699945381183    0.0000000000000000   F   F   F
     0.3333300054117316    0.0000000000000000    0.0759100019830612   F   F   F
     0.3320275029744125    0.9981655779957722    0.2305433597936158   T   T   T
     0.4979874926390088    0.1634703615956377    0.1549025162396735   T   T   T
     0.4999999999640323    0.1666699945381183    0.0000000000000000   F   F   F
     0.6666700244124115    0.0000000000000000    0.0759100019830612   F   F   F
     0.6623976082325218    0.9945811515017871    0.2228188691745589   T   T   T
     0.8327375058573502    0.1607763533498169    0.1597010528488244   T   T   T
     0.8333299756395505    0.1666699945381183    0.0000000000000000   F   F   F
     0.0000000000000000    0.3333300053544903    0.0759100019830612   F   F   F
     0.9988970182353348    0.3262128521963466    0.2234331967490970   T   T   T
     0.1709338432900168    0.4866084001326368    0.1621727034512772   T   T   T
     0.1666699946322368    0.5000000000056559    0.0000000000000000   F   F   F
     0.3333300054117316    0.3333300053544903    0.0759100019830612   F   F   F
     0.3329483296337426    0.3883352968290885    0.2343584641268192   T   T   T
     0.4950116969839536    0.4873541494806420    0.1624821376205976   T   T   T
     0.4999999999640323    0.5000000000056559    0.0000000000000000   F   F   F
     0.6666700244124115    0.3333300053544903    0.0759100019830612   F   F   F
     0.6663641321930257    0.3271623929639256    0.2234683872740052   T   T   T
     0.8325143130859572    0.4967010798112262    0.1590312303619915   T   T   T
     0.8333299756395505    0.5000000000056559    0.0000000000000000   F   F   F
     0.0000000000000000    0.6666700243881039    0.0759100019830612   F   F   F
     0.0033923752645982    0.6600840233546043    0.2220055332605106   T   T   T
     0.1686202070307430    0.8308402281279649    0.1558421959734988   T   T   T
     0.1666699946322368    0.8333299756288497    0.0000000000000000   F   F   F
     0.3333300054117316    0.6666700243881039    0.0759100019830612   F   F   F
     0.3327792264936684    0.6822399356355680    0.2292770838858521   T   T   T
     0.4967645342094266    0.8317002839410941    0.1560930642854285   T   T   T
     0.4999999999640323    0.8333299756288497    0.0000000000000000   F   F   F
     0.6666700244124115    0.6666700243881039    0.0759100019830612   F   F   F
     0.6617739231853518    0.6617818252808531    0.2222097744334190   T   T   T
     0.8328634621146571    0.8288629410040316    0.1602974398614211   T   T   T
     0.8333299756395505    0.8333299756288497    0.0000000000000000   F   F   F
     0.3321429970198123    0.2225693056039412    0.2813587449161836   T   T   T
 
  0.00000000E+00  0.00000000E+00  0.00000000E+00
  0.00000000E+00  0.00000000E+00  0.00000000E+00
  0.00000000E+00  0.00000000E+00  0.00000000E+00
  0.00000000E+00  0.00000000E+00  0.00000000E+00
  0.00000000E+00  0.00000000E+00  0.00000000E+00
  0.00000000E+00  0.00000000E+00  0.00000000E+00
  0.00000000E+00  0.00000000E+00  0.00000000E+00
  0.00000000E+00  0.00000000E+00  0.00000000E+00
  0.00000000E+00  0.00000000E+00  0.00000000E+00
  0.00000000E+00  0.00000000E+00  0.00000000E+00
  0.00000000E+00  0.00000000E+00  0.00000000E+00
  0.00000000E+00  0.00000000E+00  0.00000000E+00
  0.00000000E+00  0.00000000E+00  0.00000000E+00
  0.00000000E+00  0.00000000E+00  0.00000000E+00
  0.00000000E+00  0.00000000E+00  0.00000000E+00
  0.00000000E+00  0.00000000E+00  0.00000000E+00
  0.00000000E+00  0.00000000E+00  0.00000000E+00
  0.00000000E+00  0.00000000E+00  0.00000000E+00
  0.00000000E+00  0.00000000E+00  0.00000000E+00
  0.00000000E+00  0.00000000E+00  0.00000000E+00
  0.00000000E+00  0.00000000E+00  0.00000000E+00
  0.00000000E+00  0.00000000E+00  0.00000000E+00
  0.00000000E+00  0.00000000E+00  0.00000000E+00
  0.00000000E+00  0.00000000E+00  0.00000000E+00
  0.00000000E+00  0.00000000E+00  0.00000000E+00
  0.00000000E+00  0.00000000E+00  0.00000000E+00
  0.00000000E+00  0.00000000E+00  0.00000000E+00
  0.00000000E+00  0.00000000E+00  0.00000000E+00
  0.00000000E+00  0.00000000E+00  0.00000000E+00
  0.00000000E+00  0.00000000E+00  0.00000000E+00
  0.00000000E+00  0.00000000E+00  0.00000000E+00
  0.00000000E+00  0.00000000E+00  0.00000000E+00
  0.00000000E+00  0.00000000E+00  0.00000000E+00
  0.00000000E+00  0.00000000E+00  0.00000000E+00
  0.00000000E+00  0.00000000E+00  0.00000000E+00
  0.00000000E+00  0.00000000E+00  0.00000000E+00
  0.00000000E+00  0.00000000E+00  0.00000000E+00
