Ag Sn Ag O  C  H                        
   1.00000000000000     
     8.8247003554999992    0.0000000000000000    0.0000000000000000
     0.0000000000000000    8.8247003554999992    0.0000000000000000
     0.0000000000000000    0.0000000000000000   21.2399997710999990
   Ag   Sn   Ag   O    C    H 
    17     1    18     1     1     4
Selective dynamics
Direct
  0.0000000000000000  0.0000000000000000  0.0979299992192182   F   F   F
  0.9986173941664225  0.0017612723178691  0.2993418397019523   T   T   T
  0.1666699946455736  0.1666699946455736  0.0000000000000000   F   F   F
  0.1666061530111429  0.1676479329297477  0.1991095186379458   T   T   T
  0.3333300053827557  0.0000000000000000  0.0979299992192182   F   F   F
  0.3330044746220220  0.0124878100275980  0.3004622594428913   T   T   T
  0.5000000000283293  0.1666699946455736  0.0000000000000000   F   F   F
  0.4998374930494614  0.1671323891004342  0.1987008691791434   T   T   T
  0.6666700243632988  0.0000000000000000  0.0979299992192182   F   F   F
  0.6672068792711492  0.0014748401512048  0.2993093262656721   T   T   T
  0.8333299756083719  0.1666699946455736  0.0000000000000000   F   F   F
  0.8327482077392840  0.1672249456894360  0.1992290450769509   T   T   T
  0.0000000000000000  0.3333300053827557  0.0979299992192182   F   F   F
  0.9978925219698249  0.3339058643779212  0.3009231517611131   T   T   T
  0.1666699946455736  0.5000000000283293  0.0000000000000000   F   F   F
  0.1704778137734775  0.5042520380085024  0.2019964468469222   T   T   T
  0.3333300053827557  0.3333300053827557  0.0979299992192182   F   F   F
  0.3323568056290390  0.3456798779772596  0.3262945791631786   T   T   T
  0.5000000000283293  0.5000000000283293  0.0000000000000000   F   F   F
  0.4965087034750225  0.5035123416490612  0.2013819942318863   T   T   T
  0.6666700243632988  0.3333300053827557  0.0979299992192182   F   F   F
  0.6660376172036820  0.3339676377560860  0.3009288650185400   T   T   T
  0.8333299756083719  0.5000000000283293  0.0000000000000000   F   F   F
  0.8333229142101208  0.5005491820093745  0.1996276177269030   T   T   T
  0.0000000000000000  0.6666700243632988  0.0979299992192182   F   F   F
 -0.0019152507106979  0.6679697788624563  0.2996335154908843   T   T   T
  0.1666699946455736  0.8333299756083719  0.0000000000000000   F   F   F
  0.1680119243945591  0.8344478936041835  0.2000222737977735   T   T   T
  0.3333300053827557  0.6666700243632988  0.0979299992192182   F   F   F
  0.3328802295384734  0.6870977504443935  0.3123844385241696   T   T   T
  0.5000000000283293  0.8333299756083719  0.0000000000000000   F   F   F
  0.4980683445249133  0.8342959724885901  0.2000016425898438   T   T   T
  0.6666700243632988  0.6666700243632988  0.0979299992192182   F   F   F
  0.6673280730140423  0.6671390472536514  0.2994939579453648   T   T   T
  0.8333299756083719  0.8333299756083719  0.0000000000000000   F   F   F
  0.8331761958244410  0.8341419150308370  0.1987735353977105   T   T   T
  0.3104765026280117  0.3224281573942576  0.4224802811600595   T   T   T
  0.3325314464753605  0.7751647555649324  0.4119296521294302   T   T   T
  0.3217135482939585  0.8977397531933567  0.4177846952759169   T   T   T
  0.2361241476272054  0.7194500350653261  0.4343154406797231   T   T   T
  0.4395778697717455  0.7376617487643301  0.4324833943706295   T   T   T
  0.3495939010025819  0.4078167581726325  0.4460729298996524   T   T   T
 
  0.00000000E+00  0.00000000E+00  0.00000000E+00
  0.00000000E+00  0.00000000E+00  0.00000000E+00
  0.00000000E+00  0.00000000E+00  0.00000000E+00
  0.00000000E+00  0.00000000E+00  0.00000000E+00
  0.00000000E+00  0.00000000E+00  0.00000000E+00
  0.00000000E+00  0.00000000E+00  0.00000000E+00
  0.00000000E+00  0.00000000E+00  0.00000000E+00
  0.00000000E+00  0.00000000E+00  0.00000000E+00
  0.00000000E+00  0.00000000E+00  0.00000000E+00
  0.00000000E+00  0.00000000E+00  0.00000000E+00
  0.00000000E+00  0.00000000E+00  0.00000000E+00
  0.00000000E+00  0.00000000E+00  0.00000000E+00
  0.00000000E+00  0.00000000E+00  0.00000000E+00
  0.00000000E+00  0.00000000E+00  0.00000000E+00
  0.00000000E+00  0.00000000E+00  0.00000000E+00
  0.00000000E+00  0.00000000E+00  0.00000000E+00
  0.00000000E+00  0.00000000E+00  0.00000000E+00
  0.00000000E+00  0.00000000E+00  0.00000000E+00
  0.00000000E+00  0.00000000E+00  0.00000000E+00
  0.00000000E+00  0.00000000E+00  0.00000000E+00
  0.00000000E+00  0.00000000E+00  0.00000000E+00
  0.00000000E+00  0.00000000E+00  0.00000000E+00
  0.00000000E+00  0.00000000E+00  0.00000000E+00
  0.00000000E+00  0.00000000E+00  0.00000000E+00
  0.00000000E+00  0.00000000E+00  0.00000000E+00
  0.00000000E+00  0.00000000E+00  0.00000000E+00
  0.00000000E+00  0.00000000E+00  0.00000000E+00
  0.00000000E+00  0.00000000E+00  0.00000000E+00
  0.00000000E+00  0.00000000E+00  0.00000000E+00
  0.00000000E+00  0.00000000E+00  0.00000000E+00
  0.00000000E+00  0.00000000E+00  0.00000000E+00
  0.00000000E+00  0.00000000E+00  0.00000000E+00
  0.00000000E+00  0.00000000E+00  0.00000000E+00
  0.00000000E+00  0.00000000E+00  0.00000000E+00
  0.00000000E+00  0.00000000E+00  0.00000000E+00
  0.00000000E+00  0.00000000E+00  0.00000000E+00
  0.00000000E+00  0.00000000E+00  0.00000000E+00
  0.00000000E+00  0.00000000E+00  0.00000000E+00
  0.00000000E+00  0.00000000E+00  0.00000000E+00
  0.00000000E+00  0.00000000E+00  0.00000000E+00
  0.00000000E+00  0.00000000E+00  0.00000000E+00
  0.00000000E+00  0.00000000E+00  0.00000000E+00
