Cu Hf Cu O                              
   1.00000000000000     
     6.3046998978000000    0.0000000000000000    0.0000000000000000
     0.0000000000000000    7.7216000556999997    0.0000000000000000
     0.0000000000000000    0.0000000000000000   25.4022006988999998
   Cu   Hf   Cu   O 
    19     1    25     1
Selective dynamics
Direct
     0.0000000000000000    0.0000000000000000    0.0000000000000000   F   F   F
     0.3333299999999966    0.0000000000000000    0.1169999999999973   F   F   F
     0.6656698191138274    0.0012388244448716    0.2329554184673556   T   T   T
     0.9966258000068666    0.0023942789578824    0.3523999505747044   T   T   T
     0.6600458682547400    0.9899006935481375    0.4025643230508353   T   T   T
     0.6666700000000034    0.0000000000000000    0.0585000000000022   F   F   F
     0.0005713565535488    0.9995242532437258    0.1748187385712129   T   T   T
     0.3295911471876105    0.0039309192361930    0.2933298847684275   T   T   T
     0.3333299999999966    0.1666700000000034    0.0292499999999976   F   F   F
     0.6666700000000034    0.1666700000000034    0.1462500000000020   F   F   F
     0.9980955681309236    0.1647433229591724    0.2613687334877970   T   T   T
     0.3220179073740477    0.1618031824599305    0.3826172479502409   T   T   T
     0.0000000000000000    0.1666700000000034    0.0877499999999998   F   F   F
     0.3322704849612156    0.1662079336938343    0.2048004344927276   T   T   T
     0.6671708434560788    0.1706324867625536    0.3216817437413552   T   T   T
     0.0000000000000000    0.3333299999999966    0.0000000000000000   F   F   F
     0.3333299999999966    0.3333299999999966    0.1169999999999973   F   F   F
     0.6650237513037029    0.3334138302144586    0.2330493257522875   T   T   T
     0.0084540740908328    0.3335414254510098    0.3457588331564634   T   T   T
     0.6891286088403793    0.3331798361737999    0.4192612242208525   T   T   T
     0.6666700000000034    0.3333299999999966    0.0585000000000022   F   F   F
     0.0000285952774469    0.3332540280064143    0.1746374650554214   T   T   T
     0.3367850038682851    0.3337648440575244    0.2923511991347238   T   T   T
     0.3333299999999966    0.5000000000000000    0.0292499999999976   F   F   F
     0.6666700000000034    0.5000000000000000    0.1462500000000020   F   F   F
     0.9977732405237455    0.5016794838916582    0.2612307249511506   T   T   T
     0.3223443372960257    0.5052244524518879    0.3825049040190656   T   T   T
     0.0000000000000000    0.5000000000000000    0.0877499999999998   F   F   F
     0.3317868224687385    0.5000734970234836    0.2046485343950215   T   T   T
     0.6675591944631936    0.4968901963930883    0.3215888377981743   T   T   T
     0.0000000000000000    0.6666700000000034    0.0000000000000000   F   F   F
     0.3333299999999966    0.6666700000000034    0.1169999999999973   F   F   F
     0.6651289073608063    0.6652320317750269    0.2328753340469562   T   T   T
     0.9970090210056244    0.6642941335856237    0.3522902894787292   T   T   T
     0.6603348026987224    0.6764444637475087    0.4024588019297028   T   T   T
     0.6666700000000034    0.6666700000000034    0.0585000000000022   F   F   F
     0.0002148897161280    0.6671329239970353    0.1747137026775044   T   T   T
     0.3298272589451330    0.6627264287183265    0.2932885273613600   T   T   T
     0.3333299999999966    0.8333299999999966    0.0292499999999976   F   F   F
     0.6666700000000034    0.8333299999999966    0.1462500000000020   F   F   F
     0.9997733894754159    0.8333463335879250    0.2625199849878744   T   T   T
     0.3247474768764292    0.8335492955587708    0.3782199720786358   T   T   T
     0.0000000000000000    0.8333299999999966    0.0877499999999998   F   F   F
     0.3323131026331244    0.8333637503112652    0.2053785418850258   T   T   T
     0.6676346237867831    0.8335910634091899    0.3177626602003742   T   T   T
     0.4094556648214189    0.3338110533130277    0.4427761468708947   T   T   T
 
  0.00000000E+00  0.00000000E+00  0.00000000E+00
  0.00000000E+00  0.00000000E+00  0.00000000E+00
  0.00000000E+00  0.00000000E+00  0.00000000E+00
  0.00000000E+00  0.00000000E+00  0.00000000E+00
  0.00000000E+00  0.00000000E+00  0.00000000E+00
  0.00000000E+00  0.00000000E+00  0.00000000E+00
  0.00000000E+00  0.00000000E+00  0.00000000E+00
  0.00000000E+00  0.00000000E+00  0.00000000E+00
  0.00000000E+00  0.00000000E+00  0.00000000E+00
  0.00000000E+00  0.00000000E+00  0.00000000E+00
  0.00000000E+00  0.00000000E+00  0.00000000E+00
  0.00000000E+00  0.00000000E+00  0.00000000E+00
  0.00000000E+00  0.00000000E+00  0.00000000E+00
  0.00000000E+00  0.00000000E+00  0.00000000E+00
  0.00000000E+00  0.00000000E+00  0.00000000E+00
  0.00000000E+00  0.00000000E+00  0.00000000E+00
  0.00000000E+00  0.00000000E+00  0.00000000E+00
  0.00000000E+00  0.00000000E+00  0.00000000E+00
  0.00000000E+00  0.00000000E+00  0.00000000E+00
  0.00000000E+00  0.00000000E+00  0.00000000E+00
  0.00000000E+00  0.00000000E+00  0.00000000E+00
  0.00000000E+00  0.00000000E+00  0.00000000E+00
  0.00000000E+00  0.00000000E+00  0.00000000E+00
  0.00000000E+00  0.00000000E+00  0.00000000E+00
  0.00000000E+00  0.00000000E+00  0.00000000E+00
  0.00000000E+00  0.00000000E+00  0.00000000E+00
  0.00000000E+00  0.00000000E+00  0.00000000E+00
  0.00000000E+00  0.00000000E+00  0.00000000E+00
  0.00000000E+00  0.00000000E+00  0.00000000E+00
  0.00000000E+00  0.00000000E+00  0.00000000E+00
  0.00000000E+00  0.00000000E+00  0.00000000E+00
  0.00000000E+00  0.00000000E+00  0.00000000E+00
  0.00000000E+00  0.00000000E+00  0.00000000E+00
  0.00000000E+00  0.00000000E+00  0.00000000E+00
  0.00000000E+00  0.00000000E+00  0.00000000E+00
  0.00000000E+00  0.00000000E+00  0.00000000E+00
  0.00000000E+00  0.00000000E+00  0.00000000E+00
  0.00000000E+00  0.00000000E+00  0.00000000E+00
  0.00000000E+00  0.00000000E+00  0.00000000E+00
  0.00000000E+00  0.00000000E+00  0.00000000E+00
  0.00000000E+00  0.00000000E+00  0.00000000E+00
  0.00000000E+00  0.00000000E+00  0.00000000E+00
  0.00000000E+00  0.00000000E+00  0.00000000E+00
  0.00000000E+00  0.00000000E+00  0.00000000E+00
  0.00000000E+00  0.00000000E+00  0.00000000E+00
  0.00000000E+00  0.00000000E+00  0.00000000E+00
