Cu    C  H O                            
   1.00000000000000     
     6.3046998978000000    0.0000000000000000    0.0000000000000000
     0.0000000000000000    7.7216000556999997    0.0000000000000000
     0.0000000000000000    0.0000000000000000   25.4022006988999998
   Cu   C    H    O 
    45     1     4     1
Selective dynamics
Direct
  0.0000000000000000  0.0000000000000000  0.0000000000000000   F   F   F
  0.3333299999999966  0.0000000000000000  0.1169999999999973   F   F   F
  0.6691265286388184  0.0007038504031218  0.2353196608511935   T   T   T
  0.0039129385183034  0.0011034657104195  0.3544570392246462   T   T   T
  0.6726612555907228  0.0028871119009892  0.4069233643958107   T   T   T
  0.6666700000000034  0.0000000000000000  0.0585000000000022   F   F   F
  0.0009331035644036  0.0002495513298497  0.1757592129691012   T   T   T
  0.3364418892330438  0.0011268873207257  0.2936965743140332   T   T   T
  0.3333299999999966  0.1666700000000034  0.0292499999999976   F   F   F
  0.6666700000000034  0.1666700000000034  0.1462500000000020   F   F   F
  0.0019818731732898  0.1665495914873377  0.2640882086150912   T   T   T
  0.3342771179490721  0.1643197039149639  0.3813836112780474   T   T   T
  0.0000000000000000  0.1666700000000034  0.0877499999999998   F   F   F
  0.3354200344142101  0.1683995954498059  0.2060437036891106   T   T   T
  0.6729666301926581  0.1722975489010436  0.3234849782476611   T   T   T
  0.0000000000000000  0.3333299999999966  0.0000000000000000   F   F   F
  0.3333299999999966  0.3333299999999966  0.1169999999999973   F   F   F
  0.6669386425847973  0.3349920410666158  0.2350913195739554   T   T   T
  0.0037135945096892  0.3345068043333742  0.3545662221628504   T   T   T
  0.6724679914903409  0.3248275186340839  0.4121202840290687   T   T   T
  0.6666700000000034  0.3333299999999966  0.0585000000000022   F   F   F
  0.0008862319497319  0.3344502724695243  0.1761626051131842   T   T   T
  0.3320564037468030  0.3376776029594349  0.2952453288046191   T   T   T
  0.3333299999999966  0.5000000000000000  0.0292499999999976   F   F   F
  0.6666700000000034  0.5000000000000000  0.1462500000000020   F   F   F
  0.0001523789781388  0.5003449984719482  0.2646218412876241   T   T   T
  0.3262818439356113  0.5008158726537204  0.3881059957641122   T   T   T
  0.0000000000000000  0.5000000000000000  0.0877499999999998   F   F   F
  0.3328637645897567  0.5006602147993954  0.2058740592876615   T   T   T
  0.6713659359674312  0.5014303221226872  0.3241567290311856   T   T   T
  0.0000000000000000  0.6666700000000034  0.0000000000000000   F   F   F
  0.3333299999999966  0.6666700000000034  0.1169999999999973   F   F   F
  0.6663961901657114  0.6671223765090902  0.2352511533832960   T   T   T
  0.0047809917779177  0.6680614500964001  0.3543762332641283   T   T   T
  0.6733572354406462  0.6833499983935764  0.4120505938051898   T   T   T
  0.6666700000000034  0.6666700000000034  0.0585000000000022   F   F   F
  0.0005730841232065  0.6664031961216390  0.1762381869976525   T   T   T
  0.3331828201807807  0.6650159138313452  0.2953083533624307   T   T   T
  0.3333299999999966  0.8333299999999966  0.0292499999999976   F   F   F
  0.6666700000000034  0.8333299999999966  0.1462500000000020   F   F   F
  0.0018425824395358  0.8349669706466445  0.2641706319373479   T   T   T
  0.3343858763582542  0.8385050223344237  0.3814047243371585   T   T   T
  0.0000000000000000  0.8333299999999966  0.0877499999999998   F   F   F
  0.3345594024985152  0.8334957558083218  0.2061109235133062   T   T   T
  0.6737958948354563  0.8330941710465781  0.3234525718406964   T   T   T
  0.7454817171676393  0.2632215749691249  0.5574117864337859   T   T   T
  0.8535854861641486  0.3438219857985528  0.5803215314808556   T   T   T
  0.6742220804147196  0.1654624407793708  0.5829009872273474   T   T   T
  0.8346894770777129  0.1989967830352870  0.5261100892536843   T   T   T
  0.6220625755497007  0.3440594714958350  0.5400798068717509   T   T   T
  0.5267282218074225  0.5047947018156184  0.4468259113939399   T   T   T
 
  0.00000000E+00  0.00000000E+00  0.00000000E+00
  0.00000000E+00  0.00000000E+00  0.00000000E+00
  0.00000000E+00  0.00000000E+00  0.00000000E+00
  0.00000000E+00  0.00000000E+00  0.00000000E+00
  0.00000000E+00  0.00000000E+00  0.00000000E+00
  0.00000000E+00  0.00000000E+00  0.00000000E+00
  0.00000000E+00  0.00000000E+00  0.00000000E+00
  0.00000000E+00  0.00000000E+00  0.00000000E+00
  0.00000000E+00  0.00000000E+00  0.00000000E+00
  0.00000000E+00  0.00000000E+00  0.00000000E+00
  0.00000000E+00  0.00000000E+00  0.00000000E+00
  0.00000000E+00  0.00000000E+00  0.00000000E+00
  0.00000000E+00  0.00000000E+00  0.00000000E+00
  0.00000000E+00  0.00000000E+00  0.00000000E+00
  0.00000000E+00  0.00000000E+00  0.00000000E+00
  0.00000000E+00  0.00000000E+00  0.00000000E+00
  0.00000000E+00  0.00000000E+00  0.00000000E+00
  0.00000000E+00  0.00000000E+00  0.00000000E+00
  0.00000000E+00  0.00000000E+00  0.00000000E+00
  0.00000000E+00  0.00000000E+00  0.00000000E+00
  0.00000000E+00  0.00000000E+00  0.00000000E+00
  0.00000000E+00  0.00000000E+00  0.00000000E+00
  0.00000000E+00  0.00000000E+00  0.00000000E+00
  0.00000000E+00  0.00000000E+00  0.00000000E+00
  0.00000000E+00  0.00000000E+00  0.00000000E+00
  0.00000000E+00  0.00000000E+00  0.00000000E+00
  0.00000000E+00  0.00000000E+00  0.00000000E+00
  0.00000000E+00  0.00000000E+00  0.00000000E+00
  0.00000000E+00  0.00000000E+00  0.00000000E+00
  0.00000000E+00  0.00000000E+00  0.00000000E+00
  0.00000000E+00  0.00000000E+00  0.00000000E+00
  0.00000000E+00  0.00000000E+00  0.00000000E+00
  0.00000000E+00  0.00000000E+00  0.00000000E+00
  0.00000000E+00  0.00000000E+00  0.00000000E+00
  0.00000000E+00  0.00000000E+00  0.00000000E+00
  0.00000000E+00  0.00000000E+00  0.00000000E+00
  0.00000000E+00  0.00000000E+00  0.00000000E+00
  0.00000000E+00  0.00000000E+00  0.00000000E+00
  0.00000000E+00  0.00000000E+00  0.00000000E+00
  0.00000000E+00  0.00000000E+00  0.00000000E+00
  0.00000000E+00  0.00000000E+00  0.00000000E+00
  0.00000000E+00  0.00000000E+00  0.00000000E+00
  0.00000000E+00  0.00000000E+00  0.00000000E+00
  0.00000000E+00  0.00000000E+00  0.00000000E+00
  0.00000000E+00  0.00000000E+00  0.00000000E+00
  0.00000000E+00  0.00000000E+00  0.00000000E+00
  0.00000000E+00  0.00000000E+00  0.00000000E+00
  0.00000000E+00  0.00000000E+00  0.00000000E+00
  0.00000000E+00  0.00000000E+00  0.00000000E+00
  0.00000000E+00  0.00000000E+00  0.00000000E+00
  0.00000000E+00  0.00000000E+00  0.00000000E+00
