Cu Sc Cu O  C  H                        
   1.00000000000000     
     6.3046998978000000    0.0000000000000000    0.0000000000000000
     0.0000000000000000    7.7216000556999997    0.0000000000000000
     0.0000000000000000    0.0000000000000000   25.4022006988999998
   Cu   Sc   Cu   O    C    H 
    19     1    25     1     1     4
Selective dynamics
Direct
  0.0000000000000000  0.0000000000000000  0.0000000000000000   F   F   F
  0.3333299999999966  0.0000000000000000  0.1169999999999973   F   F   F
  0.6639167307185778  0.0013128599245038  0.2342401173798821   T   T   T
  0.9953588217120416  0.0010687181063190  0.3539954438682824   T   T   T
  0.6628910955499998  0.9893442702829308  0.4060974344459348   T   T   T
  0.6666700000000034  0.0000000000000000  0.0585000000000022   F   F   F
 -0.0004386462511186  0.9994051879508182  0.1758714068898208   T   T   T
  0.3290107659822354  0.0042465449115327  0.2951429566252647   T   T   T
  0.3333299999999966  0.1666700000000034  0.0292499999999976   F   F   F
  0.6666700000000034  0.1666700000000034  0.1462500000000020   F   F   F
  0.9970142907249773  0.1656781890214961  0.2633124525213219   T   T   T
  0.3184507166551020  0.1595584635525155  0.3856984641155349   T   T   T
  0.0000000000000000  0.1666700000000034  0.0877499999999998   F   F   F
  0.3316835504768115  0.1663016604845285  0.2055483853682782   T   T   T
  0.6650573894259124  0.1696252104135930  0.3249425017498457   T   T   T
  0.0000000000000000  0.3333299999999966  0.0000000000000000   F   F   F
  0.3333299999999966  0.3333299999999966  0.1169999999999973   F   F   F
  0.6632120123859006  0.3330127424661207  0.2351439530725684   T   T   T
 -0.0027349077449719  0.3331872446488223  0.3502904664822501   T   T   T
  0.6814349252553900  0.3324139395737936  0.4317525645035250   T   T   T
  0.6666700000000034  0.3333299999999966  0.0585000000000022   F   F   F
  0.9989415263226101  0.3333781475378478  0.1755805614020277   T   T   T
  0.3314545528346151  0.3331928876963010  0.2947951645766644   T   T   T
  0.3333299999999966  0.5000000000000000  0.0292499999999976   F   F   F
  0.6666700000000034  0.5000000000000000  0.1462500000000020   F   F   F
  0.9973953102109345  0.5009147476166163  0.2633006014253986   T   T   T
  0.3182269155533337  0.5061214116419510  0.3856928776261500   T   T   T
  0.0000000000000000  0.5000000000000000  0.0877499999999998   F   F   F
  0.3321322955244966  0.4999768187720031  0.2055751622219345   T   T   T
  0.6652079906799002  0.4964262902090145  0.3248816908432295   T   T   T
  0.0000000000000000  0.6666700000000034  0.0000000000000000   F   F   F
  0.3333299999999966  0.6666700000000034  0.1169999999999973   F   F   F
  0.6640590316241732  0.6649593409240895  0.2343044290435240   T   T   T
  0.9954993869278044  0.6655323793730662  0.3540571757927503   T   T   T
  0.6628887694384000  0.6758792927119887  0.4060422331390930   T   T   T
  0.6666700000000034  0.6666700000000034  0.0585000000000022   F   F   F
 -0.0004509442835590  0.6671367858417195  0.1757504331916215   T   T   T
  0.3292131665621356  0.6623207842716882  0.2951491739304086   T   T   T
  0.3333299999999966  0.8333299999999966  0.0292499999999976   F   F   F
  0.6666700000000034  0.8333299999999966  0.1462500000000020   F   F   F
 -0.0018053604494924  0.8333808922701249  0.2639627277367851   T   T   T
  0.3258650770054048  0.8328048376447733  0.3810604620417583   T   T   T
  0.0000000000000000  0.8333299999999966  0.0877499999999998   F   F   F
  0.3314874027515027  0.8330443171591867  0.2066040819576487   T   T   T
  0.6655500856150653  0.8331147884453246  0.3197905259149030   T   T   T
  0.3937202239633820  0.3328214733550138  0.4430082039090946   T   T   T
  0.7358697620797721  0.3334560459073021  0.5505866512356380   T   T   T
  0.8730951541615284  0.3336233148675474  0.5238594351670781   T   T   T
  0.7454775572197383  0.4496074590302233  0.5748706588821980   T   T   T
  0.7455648397063248  0.2172108795630723  0.5748488965135047   T   T   T
  0.5828520095532779  0.3335206895775819  0.5301974190137794   T   T   T
 
  0.00000000E+00  0.00000000E+00  0.00000000E+00
  0.00000000E+00  0.00000000E+00  0.00000000E+00
  0.00000000E+00  0.00000000E+00  0.00000000E+00
  0.00000000E+00  0.00000000E+00  0.00000000E+00
  0.00000000E+00  0.00000000E+00  0.00000000E+00
  0.00000000E+00  0.00000000E+00  0.00000000E+00
  0.00000000E+00  0.00000000E+00  0.00000000E+00
  0.00000000E+00  0.00000000E+00  0.00000000E+00
  0.00000000E+00  0.00000000E+00  0.00000000E+00
  0.00000000E+00  0.00000000E+00  0.00000000E+00
  0.00000000E+00  0.00000000E+00  0.00000000E+00
  0.00000000E+00  0.00000000E+00  0.00000000E+00
  0.00000000E+00  0.00000000E+00  0.00000000E+00
  0.00000000E+00  0.00000000E+00  0.00000000E+00
  0.00000000E+00  0.00000000E+00  0.00000000E+00
  0.00000000E+00  0.00000000E+00  0.00000000E+00
  0.00000000E+00  0.00000000E+00  0.00000000E+00
  0.00000000E+00  0.00000000E+00  0.00000000E+00
  0.00000000E+00  0.00000000E+00  0.00000000E+00
  0.00000000E+00  0.00000000E+00  0.00000000E+00
  0.00000000E+00  0.00000000E+00  0.00000000E+00
  0.00000000E+00  0.00000000E+00  0.00000000E+00
  0.00000000E+00  0.00000000E+00  0.00000000E+00
  0.00000000E+00  0.00000000E+00  0.00000000E+00
  0.00000000E+00  0.00000000E+00  0.00000000E+00
  0.00000000E+00  0.00000000E+00  0.00000000E+00
  0.00000000E+00  0.00000000E+00  0.00000000E+00
  0.00000000E+00  0.00000000E+00  0.00000000E+00
  0.00000000E+00  0.00000000E+00  0.00000000E+00
  0.00000000E+00  0.00000000E+00  0.00000000E+00
  0.00000000E+00  0.00000000E+00  0.00000000E+00
  0.00000000E+00  0.00000000E+00  0.00000000E+00
  0.00000000E+00  0.00000000E+00  0.00000000E+00
  0.00000000E+00  0.00000000E+00  0.00000000E+00
  0.00000000E+00  0.00000000E+00  0.00000000E+00
  0.00000000E+00  0.00000000E+00  0.00000000E+00
  0.00000000E+00  0.00000000E+00  0.00000000E+00
  0.00000000E+00  0.00000000E+00  0.00000000E+00
  0.00000000E+00  0.00000000E+00  0.00000000E+00
  0.00000000E+00  0.00000000E+00  0.00000000E+00
  0.00000000E+00  0.00000000E+00  0.00000000E+00
  0.00000000E+00  0.00000000E+00  0.00000000E+00
  0.00000000E+00  0.00000000E+00  0.00000000E+00
  0.00000000E+00  0.00000000E+00  0.00000000E+00
  0.00000000E+00  0.00000000E+00  0.00000000E+00
  0.00000000E+00  0.00000000E+00  0.00000000E+00
  0.00000000E+00  0.00000000E+00  0.00000000E+00
  0.00000000E+00  0.00000000E+00  0.00000000E+00
  0.00000000E+00  0.00000000E+00  0.00000000E+00
  0.00000000E+00  0.00000000E+00  0.00000000E+00
  0.00000000E+00  0.00000000E+00  0.00000000E+00
