Ag   Sn   Ag   O    C    H              
   1.00000000000000     
     8.8247003554999992    0.0000000000000000    0.0000000000000000
    -4.4123501777999996    7.6424146886999997    0.0000000000000000
     0.0000000000000000    0.0000000000000000   22.2052993773999994
   Ag   Sn   Ag   O    C    H 
    17     1    18     1     1     4
Selective dynamics
Direct
  0.0000000000000000  0.0000000000000000  0.0000000000000000   F   F   F
  0.9963508954613600  0.0014160805921617  0.3299576170908454   T   T   T
  0.2235345249517277  0.1128808848196519  0.2207706421505346   T   T   T
  0.1111101706199165  0.2222203412373176  0.1081602170355964   F   F   F
  0.3333302980839079  0.0000000000000000  0.0000000000000000   F   F   F
  0.3217823264210573  0.9889443957174306  0.3348552248989783   T   T   T
  0.5548263449015983  0.1122315986747841  0.2229220944164706   T   T   T
  0.4444404687038244  0.2222203412373176  0.1081602170355964   F   F   F
  0.6666696616314383  0.0000000000000000  0.0000000000000000   F   F   F
  0.6649144303165979  0.0020761315370639  0.3370466840931687   T   T   T
  0.8863969714805904  0.1109241626760075  0.2196579971190271   T   T   T
  0.7777798322513547  0.2222203412373176  0.1081602170355964   F   F   F
  0.0000000666032705  0.3333305118559764  0.0000000000000000   F   F   F
  0.0019413331827112  0.3347239591376729  0.3298716916841651   T   T   T
  0.2219171615981898  0.4447817445142657  0.2180980017252518   T   T   T
  0.1111103244804070  0.5555600125020490  0.1081602170355964   F   F   F
  0.3333304049718322  0.3333305118559764  0.0000000000000000   F   F   F
  0.3362824000132198  0.3306839161186207  0.3581631450913728   T   T   T
  0.5536281670780874  0.4431579515192975  0.2208659607355926   T   T   T
  0.4444394893813666  0.5555600125020490  0.1081602170355964   F   F   F
  0.6666697685193554  0.3333305118559764  0.0000000000000000   F   F   F
  0.6782906966433563  0.3455712334240746  0.3350537571390246   T   T   T
  0.8855197750602045  0.4431710535152925  0.2205455197122321   T   T   T
  0.7777799861118453  0.5555600125020490  0.1081602170355964   F   F   F
  0.0000002204637610  0.6666701831207078  0.0000000000000000   F   F   F
  0.9992339136225723  0.6678623315885485  0.3290132871898019   T   T   T
  0.2237530650856575  0.7812162938616957  0.2203663411711344   T   T   T
  0.1111104313683313  0.8888905243580254  0.1081602170355964   F   F   F
  0.3333305588323228  0.6666701831207078  0.0000000000000000   F   F   F
  0.3318774159311728  0.6649581957410650  0.3299711753450593   T   T   T
  0.5557245417586951  0.7803578676233303  0.2197451462559499   T   T   T
  0.4444407294522392  0.8888905243580254  0.1081602170355964   F   F   F
  0.6666699223798460  0.6666701831207078  0.0000000000000000   F   F   F
  0.6652270401766077  0.6706968322349833  0.3300457028095223   T   T   T
  0.8879719503494243  0.7785868523993933  0.2185730028471272   T   T   T
  0.7777800929997625  0.8888905243580254  0.1081602170355964   F   F   F
  0.5043291934676165  0.1623131061699777  0.4063233234388386   T   T   T
  0.3662366704964304  0.3000826389714940  0.4779697052601151   T   T   T
  0.2951124111828614  0.3712799618197855  0.4718761721557526   T   T   T
  0.2801648846091535  0.1814876226553739  0.5033890052550778   T   T   T
  0.4849191473641481  0.3861898331749868  0.5033684472845161   T   T   T
  0.4335280004518600  0.2327450934696769  0.4393482910674044   T   T   T
 
  0.00000000E+00  0.00000000E+00  0.00000000E+00
  0.00000000E+00  0.00000000E+00  0.00000000E+00
  0.00000000E+00  0.00000000E+00  0.00000000E+00
  0.00000000E+00  0.00000000E+00  0.00000000E+00
  0.00000000E+00  0.00000000E+00  0.00000000E+00
  0.00000000E+00  0.00000000E+00  0.00000000E+00
  0.00000000E+00  0.00000000E+00  0.00000000E+00
  0.00000000E+00  0.00000000E+00  0.00000000E+00
  0.00000000E+00  0.00000000E+00  0.00000000E+00
  0.00000000E+00  0.00000000E+00  0.00000000E+00
  0.00000000E+00  0.00000000E+00  0.00000000E+00
  0.00000000E+00  0.00000000E+00  0.00000000E+00
  0.00000000E+00  0.00000000E+00  0.00000000E+00
  0.00000000E+00  0.00000000E+00  0.00000000E+00
  0.00000000E+00  0.00000000E+00  0.00000000E+00
  0.00000000E+00  0.00000000E+00  0.00000000E+00
  0.00000000E+00  0.00000000E+00  0.00000000E+00
  0.00000000E+00  0.00000000E+00  0.00000000E+00
  0.00000000E+00  0.00000000E+00  0.00000000E+00
  0.00000000E+00  0.00000000E+00  0.00000000E+00
  0.00000000E+00  0.00000000E+00  0.00000000E+00
  0.00000000E+00  0.00000000E+00  0.00000000E+00
  0.00000000E+00  0.00000000E+00  0.00000000E+00
  0.00000000E+00  0.00000000E+00  0.00000000E+00
  0.00000000E+00  0.00000000E+00  0.00000000E+00
  0.00000000E+00  0.00000000E+00  0.00000000E+00
  0.00000000E+00  0.00000000E+00  0.00000000E+00
  0.00000000E+00  0.00000000E+00  0.00000000E+00
  0.00000000E+00  0.00000000E+00  0.00000000E+00
  0.00000000E+00  0.00000000E+00  0.00000000E+00
  0.00000000E+00  0.00000000E+00  0.00000000E+00
  0.00000000E+00  0.00000000E+00  0.00000000E+00
  0.00000000E+00  0.00000000E+00  0.00000000E+00
  0.00000000E+00  0.00000000E+00  0.00000000E+00
  0.00000000E+00  0.00000000E+00  0.00000000E+00
  0.00000000E+00  0.00000000E+00  0.00000000E+00
  0.00000000E+00  0.00000000E+00  0.00000000E+00
  0.00000000E+00  0.00000000E+00  0.00000000E+00
  0.00000000E+00  0.00000000E+00  0.00000000E+00
  0.00000000E+00  0.00000000E+00  0.00000000E+00
  0.00000000E+00  0.00000000E+00  0.00000000E+00
  0.00000000E+00  0.00000000E+00  0.00000000E+00
