Os  O  C  H                             
   1.00000000000000     
     8.2840995788999994    0.0000000000000000    0.0000000000000000
    -4.1420497893999997    7.1742406827999998    0.0000000000000000
     0.0000000000000000    0.0000000000000000   21.5244998932000016
   Os   O    C    H 
    36     1     1     4
Selective dynamics
Direct
  0.1018500029366507  0.1018500029908154  0.1010399982248629   F   F   F
  0.0946566485603899  0.0981433342413628  0.2997608129324596   T   T   T
  0.2129600047102826  0.3240700065407651  0.0000000000000000   F   F   F
  0.2146986603576591  0.3253445851700347  0.2024891126659108   T   T   T
  0.4351899922377811  0.1018500029908154  0.1010399982248629   F   F   F
  0.4308064767685313  0.0930661259182188  0.3029320983831507   T   T   T
  0.5462999940114130  0.3240700065407651  0.0000000000000000   F   F   F
  0.5462472182268308  0.3239331877612926  0.2001687498884377   T   T   T
  0.7685199975932520  0.1018500029908154  0.1010399982248629   F   F   F
  0.7720937011005332  0.0981748434429864  0.2997650181573318   T   T   T
  0.8796300291830406  0.3240700065407651  0.0000000000000000   F   F   F
  0.8791911261508455  0.3253394428997212  0.2024879299342323   T   T   T
  0.1018500029637579  0.4351899922294606  0.1010399982248629   F   F   F
  0.1017677641250197  0.4349289664759113  0.3002849654567454   T   T   T
  0.2129600048041382  0.6574100256083497  0.0000000000000000   F   F   F
  0.2129495422736679  0.6573641127896614  0.2009179857290710   T   T   T
  0.4351899922648812  0.4351899922294606  0.1010399982248629   F   F   F
  0.4307103132229235  0.4391456983932064  0.3027897203256032   T   T   T
  0.5462999939845545  0.6574100256083497  0.0000000000000000   F   F   F
  0.5448856408362093  0.6554992066295554  0.2024815583756449   T   T   T
  0.7685199976203592  0.4351899922294606  0.1010399982248629   F   F   F
  0.7770503656415065  0.4391623142636750  0.3027935642880739   T   T   T
  0.8796300291561820  0.6574100256083497  0.0000000000000000   F   F   F
  0.8791810045836137  0.6555067681022023  0.2024878511350397   T   T   T
  0.1018500030068239  0.7685199975543782  0.1010399982248629   F   F   F
  0.1019447632545669  0.7684481624927540  0.3002315331423924   T   T   T
  0.2129600048501530  0.9907400012437151  0.0000000000000000   F   F   F
  0.2147328727574142  0.9910460012081760  0.2024998633737362   T   T   T
  0.4351899921872402  0.7685199975543782  0.1010399982248629   F   F   F
  0.4350877444642744  0.7684368288986061  0.3002321464889751   T   T   T
  0.5462999940305693  0.9907400012437151  0.0000000000000000   F   F   F
  0.5448705949713160  0.9910552487508207  0.2024984772198395   T   T   T
  0.7685199975427111  0.7685199975543782  0.1010399982248629   F   F   F
  0.7721086054482649  0.7756438596323368  0.2996939287418993   T   T   T
  0.8796300292021968  0.9907400012437151  0.0000000000000000   F   F   F
  0.8795935370134663  0.9906517402553461  0.2012153639272561   T   T   T
  0.5464819664027615  0.3243765576079390  0.3601507427418245   T   T   T
  0.7666488951174931  0.7666414601503978  0.4806804235153087   T   T   T
  0.8716310585841515  0.7614629598611002  0.5098563072709540   T   T   T
  0.6561404596691518  0.7614024944984523  0.5096810092828196   T   T   T
  0.7073487476398368  0.6476347636939757  0.4491000150926127   T   T   T
  0.8313735119141036  0.8958289176454129  0.4539454520244699   T   T   T
 
  0.00000000E+00  0.00000000E+00  0.00000000E+00
  0.00000000E+00  0.00000000E+00  0.00000000E+00
  0.00000000E+00  0.00000000E+00  0.00000000E+00
  0.00000000E+00  0.00000000E+00  0.00000000E+00
  0.00000000E+00  0.00000000E+00  0.00000000E+00
  0.00000000E+00  0.00000000E+00  0.00000000E+00
  0.00000000E+00  0.00000000E+00  0.00000000E+00
  0.00000000E+00  0.00000000E+00  0.00000000E+00
  0.00000000E+00  0.00000000E+00  0.00000000E+00
  0.00000000E+00  0.00000000E+00  0.00000000E+00
  0.00000000E+00  0.00000000E+00  0.00000000E+00
  0.00000000E+00  0.00000000E+00  0.00000000E+00
  0.00000000E+00  0.00000000E+00  0.00000000E+00
  0.00000000E+00  0.00000000E+00  0.00000000E+00
  0.00000000E+00  0.00000000E+00  0.00000000E+00
  0.00000000E+00  0.00000000E+00  0.00000000E+00
  0.00000000E+00  0.00000000E+00  0.00000000E+00
  0.00000000E+00  0.00000000E+00  0.00000000E+00
  0.00000000E+00  0.00000000E+00  0.00000000E+00
  0.00000000E+00  0.00000000E+00  0.00000000E+00
  0.00000000E+00  0.00000000E+00  0.00000000E+00
  0.00000000E+00  0.00000000E+00  0.00000000E+00
  0.00000000E+00  0.00000000E+00  0.00000000E+00
  0.00000000E+00  0.00000000E+00  0.00000000E+00
  0.00000000E+00  0.00000000E+00  0.00000000E+00
  0.00000000E+00  0.00000000E+00  0.00000000E+00
  0.00000000E+00  0.00000000E+00  0.00000000E+00
  0.00000000E+00  0.00000000E+00  0.00000000E+00
  0.00000000E+00  0.00000000E+00  0.00000000E+00
  0.00000000E+00  0.00000000E+00  0.00000000E+00
  0.00000000E+00  0.00000000E+00  0.00000000E+00
  0.00000000E+00  0.00000000E+00  0.00000000E+00
  0.00000000E+00  0.00000000E+00  0.00000000E+00
  0.00000000E+00  0.00000000E+00  0.00000000E+00
  0.00000000E+00  0.00000000E+00  0.00000000E+00
  0.00000000E+00  0.00000000E+00  0.00000000E+00
  0.00000000E+00  0.00000000E+00  0.00000000E+00
  0.00000000E+00  0.00000000E+00  0.00000000E+00
  0.00000000E+00  0.00000000E+00  0.00000000E+00
  0.00000000E+00  0.00000000E+00  0.00000000E+00
  0.00000000E+00  0.00000000E+00  0.00000000E+00
  0.00000000E+00  0.00000000E+00  0.00000000E+00
