Os                                      
   1.00000000000000     
     8.2840995788999994    0.0000000000000000    0.0000000000000000
    -4.1420497893999997    7.1742406827999998    0.0000000000000000
     0.0000000000000000    0.0000000000000000   21.5244998932000016
   Os
    36
Selective dynamics
Direct
  0.1018500029366507  0.1018500029908154  0.1010399982248629   F   F   F
  0.1018897852591140  0.1019185666753021  0.3005043652499867   T   T   T
  0.2129600047102826  0.3240700065407651  0.0000000000000000   F   F   F
  0.2129645494603501  0.3240672519828234  0.2019005753250238   T   T   T
  0.4351899922377811  0.1018500029908154  0.1010399982248629   F   F   F
  0.4352239737136169  0.1019099722807662  0.3005083555218322   T   T   T
  0.5462999940114130  0.3240700065407651  0.0000000000000000   F   F   F
  0.5463039824573576  0.3240635069573219  0.2019007274139051   T   T   T
  0.7685199975932520  0.1018500029908154  0.1010399982248629   F   F   F
  0.7685491554919857  0.1019201928273637  0.3005094252777730   T   T   T
  0.8796300291830406  0.3240700065407651  0.0000000000000000   F   F   F
  0.8796301788170160  0.3240597520546876  0.2019000581702631   T   T   T
  0.1018500029637579  0.4351899922294606  0.1010399982248629   F   F   F
  0.1018785570545201  0.4352376133344825  0.3005092070858014   T   T   T
  0.2129600048041382  0.6574100256083497  0.0000000000000000   F   F   F
  0.2129749981629314  0.6573990729999651  0.2018999899901095   T   T   T
  0.4351899922648812  0.4351899922294606  0.1010399982248629   F   F   F
  0.4352124520842225  0.4352381043740884  0.3005067049673174   T   T   T
  0.5462999939845545  0.6574100256083497  0.0000000000000000   F   F   F
  0.5463072674400764  0.6574061010288510  0.2019021114568538   T   T   T
  0.7685199976203592  0.4351899922294606  0.1010399982248629   F   F   F
  0.7685530463230582  0.4352290434414606  0.3005050236062918   T   T   T
  0.8796300291561820  0.6574100256083497  0.0000000000000000   F   F   F
  0.8796339832588189  0.6574001162624599  0.2019045161009184   T   T   T
  0.1018500030068239  0.7685199975543782  0.1010399982248629   F   F   F
  0.1018955436394507  0.7685828145070047  0.3005011554975153   T   T   T
  0.2129600048501530  0.9907400012437151  0.0000000000000000   F   F   F
  0.2129744618773066  0.9907338328957457  0.2019042577289312   T   T   T
  0.4351899921872402  0.7685199975543782  0.1010399982248629   F   F   F
  0.4352195180461936  0.7685897714088401  0.3005088510640641   T   T   T
  0.5462999940305693  0.9907400012437151  0.0000000000000000   F   F   F
  0.5463098504178131  0.9907370765307872  0.2019003712612349   T   T   T
  0.7685199975427111  0.7685199975543782  0.1010399982248629   F   F   F
  0.7685522216410727  0.7685838381206374  0.3004993685332214   T   T   T
  0.8796300292021968  0.9907400012437151  0.0000000000000000   F   F   F
  0.8796305146223986  0.9907353200920346  0.2019065358737002   T   T   T
 
  0.00000000E+00  0.00000000E+00  0.00000000E+00
  0.00000000E+00  0.00000000E+00  0.00000000E+00
  0.00000000E+00  0.00000000E+00  0.00000000E+00
  0.00000000E+00  0.00000000E+00  0.00000000E+00
  0.00000000E+00  0.00000000E+00  0.00000000E+00
  0.00000000E+00  0.00000000E+00  0.00000000E+00
  0.00000000E+00  0.00000000E+00  0.00000000E+00
  0.00000000E+00  0.00000000E+00  0.00000000E+00
  0.00000000E+00  0.00000000E+00  0.00000000E+00
  0.00000000E+00  0.00000000E+00  0.00000000E+00
  0.00000000E+00  0.00000000E+00  0.00000000E+00
  0.00000000E+00  0.00000000E+00  0.00000000E+00
  0.00000000E+00  0.00000000E+00  0.00000000E+00
  0.00000000E+00  0.00000000E+00  0.00000000E+00
  0.00000000E+00  0.00000000E+00  0.00000000E+00
  0.00000000E+00  0.00000000E+00  0.00000000E+00
  0.00000000E+00  0.00000000E+00  0.00000000E+00
  0.00000000E+00  0.00000000E+00  0.00000000E+00
  0.00000000E+00  0.00000000E+00  0.00000000E+00
  0.00000000E+00  0.00000000E+00  0.00000000E+00
  0.00000000E+00  0.00000000E+00  0.00000000E+00
  0.00000000E+00  0.00000000E+00  0.00000000E+00
  0.00000000E+00  0.00000000E+00  0.00000000E+00
  0.00000000E+00  0.00000000E+00  0.00000000E+00
  0.00000000E+00  0.00000000E+00  0.00000000E+00
  0.00000000E+00  0.00000000E+00  0.00000000E+00
  0.00000000E+00  0.00000000E+00  0.00000000E+00
  0.00000000E+00  0.00000000E+00  0.00000000E+00
  0.00000000E+00  0.00000000E+00  0.00000000E+00
  0.00000000E+00  0.00000000E+00  0.00000000E+00
  0.00000000E+00  0.00000000E+00  0.00000000E+00
  0.00000000E+00  0.00000000E+00  0.00000000E+00
  0.00000000E+00  0.00000000E+00  0.00000000E+00
  0.00000000E+00  0.00000000E+00  0.00000000E+00
  0.00000000E+00  0.00000000E+00  0.00000000E+00
  0.00000000E+00  0.00000000E+00  0.00000000E+00
