Os O                                    
   1.00000000000000     
     8.2840995788999994    0.0000000000000000    0.0000000000000000
    -4.1420497893999997    7.1742406827999998    0.0000000000000000
     0.0000000000000000    0.0000000000000000   21.5244998932000016
   Os   O 
    36     1
Selective dynamics
Direct
  0.1018500029366507  0.1018500029908154  0.1010399982248629   F   F   F
  0.0946166500915737  0.0982560335466758  0.2996682812592510   T   T   T
  0.2129600047102826  0.3240700065407651  0.0000000000000000   F   F   F
  0.2147456395358631  0.3254665523812506  0.2024171291957941   T   T   T
  0.4351899922377811  0.1018500029908154  0.1010399982248629   F   F   F
  0.4307562135391905  0.0930013429918048  0.3027789355049464   T   T   T
  0.5462999940114130  0.3240700065407651  0.0000000000000000   F   F   F
  0.5463064914611664  0.3240902718445398  0.2001274556390271   T   T   T
  0.7685199975932520  0.1018500029908154  0.1010399982248629   F   F   F
  0.7721961821422525  0.0982849487552286  0.2996742983149332   T   T   T
  0.8796300291830406  0.3240700065407651  0.0000000000000000   F   F   F
  0.8792364744250136  0.3254714625386015  0.2024197316068523   T   T   T
  0.1018500029637579  0.4351899922294606  0.1010399982248629   F   F   F
  0.1018937631073982  0.4352431195113269  0.3001635542593419   T   T   T
  0.2129600048041382  0.6574100256083497  0.0000000000000000   F   F   F
  0.2129832940958849  0.6574447396590131  0.2008683777929150   T   T   T
  0.4351899922648812  0.4351899922294606  0.1010399982248629   F   F   F
  0.4307600345290226  0.4397214633930133  0.3027737251138731   T   T   T
  0.5462999939845545  0.6574100256083497  0.0000000000000000   F   F   F
  0.5449686484896148  0.6556645188422792  0.2024173150784989   T   T   T
  0.7685199976203592  0.4351899922294606  0.1010399982248629   F   F   F
  0.7775047811749474  0.4397167737521883  0.3027738758108072   T   T   T
  0.8796300291561820  0.6574100256083497  0.0000000000000000   F   F   F
  0.8792282407536050  0.6556627260777148  0.2024190215533679   T   T   T
  0.1018500030068239  0.7685199975543782  0.1010399982248629   F   F   F
  0.1018905167443975  0.7685971520866204  0.3001624026651299   T   T   T
  0.2129600048501530  0.9907400012437151  0.0000000000000000   F   F   F
  0.2147504801682629  0.9911862493492549  0.2024175580863243   T   T   T
  0.4351899921872402  0.7685199975543782  0.1010399982248629   F   F   F
  0.4352526647890897  0.7686033394802081  0.3001625163746553   T   T   T
  0.5462999940305693  0.9907400012437151  0.0000000000000000   F   F   F
  0.5449685835580880  0.9911973420474141  0.2024206354948745   T   T   T
  0.7685199975427111  0.7685199975543782  0.1010399982248629   F   F   F
  0.7721794131657091  0.7758329382121190  0.2996739828751487   T   T   T
  0.8796300292021968  0.9907400012437151  0.0000000000000000   F   F   F
  0.8796384286854604  0.9907734889836348  0.2011394269405287   T   T   T
  0.5463513382106697  0.3241640629734945  0.3597569697315777   T   T   T
 
  0.00000000E+00  0.00000000E+00  0.00000000E+00
  0.00000000E+00  0.00000000E+00  0.00000000E+00
  0.00000000E+00  0.00000000E+00  0.00000000E+00
  0.00000000E+00  0.00000000E+00  0.00000000E+00
  0.00000000E+00  0.00000000E+00  0.00000000E+00
  0.00000000E+00  0.00000000E+00  0.00000000E+00
  0.00000000E+00  0.00000000E+00  0.00000000E+00
  0.00000000E+00  0.00000000E+00  0.00000000E+00
  0.00000000E+00  0.00000000E+00  0.00000000E+00
  0.00000000E+00  0.00000000E+00  0.00000000E+00
  0.00000000E+00  0.00000000E+00  0.00000000E+00
  0.00000000E+00  0.00000000E+00  0.00000000E+00
  0.00000000E+00  0.00000000E+00  0.00000000E+00
  0.00000000E+00  0.00000000E+00  0.00000000E+00
  0.00000000E+00  0.00000000E+00  0.00000000E+00
  0.00000000E+00  0.00000000E+00  0.00000000E+00
  0.00000000E+00  0.00000000E+00  0.00000000E+00
  0.00000000E+00  0.00000000E+00  0.00000000E+00
  0.00000000E+00  0.00000000E+00  0.00000000E+00
  0.00000000E+00  0.00000000E+00  0.00000000E+00
  0.00000000E+00  0.00000000E+00  0.00000000E+00
  0.00000000E+00  0.00000000E+00  0.00000000E+00
  0.00000000E+00  0.00000000E+00  0.00000000E+00
  0.00000000E+00  0.00000000E+00  0.00000000E+00
  0.00000000E+00  0.00000000E+00  0.00000000E+00
  0.00000000E+00  0.00000000E+00  0.00000000E+00
  0.00000000E+00  0.00000000E+00  0.00000000E+00
  0.00000000E+00  0.00000000E+00  0.00000000E+00
  0.00000000E+00  0.00000000E+00  0.00000000E+00
  0.00000000E+00  0.00000000E+00  0.00000000E+00
  0.00000000E+00  0.00000000E+00  0.00000000E+00
  0.00000000E+00  0.00000000E+00  0.00000000E+00
  0.00000000E+00  0.00000000E+00  0.00000000E+00
  0.00000000E+00  0.00000000E+00  0.00000000E+00
  0.00000000E+00  0.00000000E+00  0.00000000E+00
  0.00000000E+00  0.00000000E+00  0.00000000E+00
  0.00000000E+00  0.00000000E+00  0.00000000E+00
