Os   O    C    H                        
   1.00000000000000     
     8.2840995788999994    0.0000000000000000    0.0000000000000000
    -4.1420497893999997    7.1742406827999998    0.0000000000000000
     0.0000000000000000    0.0000000000000000   21.5244998932000016
   Os   O    C    H 
    36     1     1     4
Selective dynamics
Direct
  0.1018500029366507  0.1018500029908154  0.1010399982248629   F   F   F
  0.1043814455228609  0.1050692057648712  0.2997448719736715   T   T   T
  0.2129600047102826  0.3240700065407651  0.0000000000000000   F   F   F
  0.2126494162479430  0.3243395641043200  0.2013637203047299   T   T   T
  0.4351899922377812  0.1018500029908154  0.1010399982248629   F   F   F
  0.4312684055748469  0.0946569250260109  0.2998759048228407   T   T   T
  0.5462999940114132  0.3240700065407651  0.0000000000000000   F   F   F
  0.5466852725967335  0.3251745998892435  0.2014196020951190   T   T   T
  0.7685199975932520  0.1018500029908154  0.1010399982248629   F   F   F
  0.7688170118962843  0.1057414344364871  0.2996371984843892   T   T   T
  0.8796300291830407  0.3240700065407651  0.0000000000000000   F   F   F
  0.8797632345606669  0.3244082608900399  0.2013708978413744   T   T   T
  0.1018500029637579  0.4351899922294605  0.1010399982248629   F   F   F
  0.1012703578292943  0.4347275419061691  0.2998947496514687   T   T   T
  0.2129600048041382  0.6574100256083496  0.0000000000000000   F   F   F
  0.2125242159536286  0.6569901067136655  0.2019464908268327   T   T   T
  0.4351899922648812  0.4351899922294605  0.1010399982248629   F   F   F
  0.4364205325953762  0.4345392914822636  0.3024562726688317   T   T   T
  0.5462999939845545  0.6574100256083496  0.0000000000000000   F   F   F
  0.5464694086851706  0.6573988007628603  0.2024438648849168   T   T   T
  0.7685199976203592  0.4351899922294605  0.1010399982248629   F   F   F
  0.7659924818296396  0.4350465124036120  0.3027320729797217   T   T   T
  0.8796300291561820  0.6574100256083496  0.0000000000000000   F   F   F
  0.8789983082478057  0.6575171578354947  0.2025564518939690   T   T   T
  0.1018500030068239  0.7685199975543781  0.1010399982248629   F   F   F
  0.1046535176821166  0.7686916960873802  0.3002707254458364   T   T   T
  0.2129600048501530  0.9907400012437150  0.0000000000000000   F   F   F
  0.2129252649325604  0.9916494150510353  0.2017458089051398   T   T   T
  0.4351899921872402  0.7685199975543781  0.1010399982248629   F   F   F
  0.4312315376655604  0.7683866753122053  0.3001037106468112   T   T   T
  0.5462999940305693  0.9907400012437150  0.0000000000000000   F   F   F
  0.5468655408878813  0.9916796508583908  0.2017057411127434   T   T   T
  0.7685199975427111  0.7685199975543781  0.1010399982248629   F   F   F
  0.7724116367683578  0.7780565417551502  0.3025005054710097   T   T   T
  0.8796300292021968  0.9907400012437150  0.0000000000000000   F   F   F
  0.8799480239931516  0.9915931600150054  0.2015158054521359   T   T   T
  0.6000220820065435  0.4332251253199004  0.3764399842861996   T   T   T
  0.7594641115586912  0.7767976089478390  0.4166361043750388   T   T   T
  0.8511237996418034  0.7501359639997152  0.4462527360879729   T   T   T
  0.6306175827639253  0.7451892138903087  0.4407763736194165   T   T   T
  0.6841760816052856  0.6074937316142865  0.3895134848476743   T   T   T
  0.8337732815099501  0.9267972815346180  0.4077845314419136   T   T   T
 
  0.00000000E+00  0.00000000E+00  0.00000000E+00
  0.11544771E-01 -0.52189579E-02  0.84763138E-02
  0.00000000E+00  0.00000000E+00  0.00000000E+00
 -0.83649828E-02 -0.31084796E-02 -0.34491941E-02
  0.00000000E+00  0.00000000E+00  0.00000000E+00
  0.11628169E-04 -0.10827778E-01 -0.29398845E-01
  0.00000000E+00  0.00000000E+00  0.00000000E+00
  0.11267108E-02  0.60625435E-02  0.14953695E-01
  0.00000000E+00  0.00000000E+00  0.00000000E+00
 -0.11925262E-01 -0.20530486E-02  0.71304317E-02
  0.00000000E+00  0.00000000E+00  0.00000000E+00
  0.78948469E-02 -0.28731164E-02 -0.38001111E-02
  0.00000000E+00  0.00000000E+00  0.00000000E+00
  0.79971458E-03  0.17054235E-02 -0.44889458E-02
  0.00000000E+00  0.00000000E+00  0.00000000E+00
 -0.13822525E-02 -0.46067682E-02  0.16993881E-02
  0.00000000E+00  0.00000000E+00  0.00000000E+00
  0.10120037E-01 -0.27044258E-01 -0.35163247E-01
  0.00000000E+00  0.00000000E+00  0.00000000E+00
  0.11550010E-01  0.35962155E-02  0.33182166E-02
  0.00000000E+00  0.00000000E+00  0.00000000E+00
 -0.99256297E-02 -0.23361175E-01 -0.31577659E-01
  0.00000000E+00  0.00000000E+00  0.00000000E+00
 -0.89014669E-02  0.33696719E-02  0.59580817E-03
  0.00000000E+00  0.00000000E+00  0.00000000E+00
 -0.27301238E-02  0.72109084E-02  0.39564818E-02
  0.00000000E+00  0.00000000E+00  0.00000000E+00
 -0.42595874E-02 -0.27043835E-02 -0.18927034E-02
  0.00000000E+00  0.00000000E+00  0.00000000E+00
  0.23381173E-02  0.67443543E-02  0.40274264E-02
  0.00000000E+00  0.00000000E+00  0.00000000E+00
  0.57389935E-02 -0.13253822E-02 -0.17609492E-02
  0.00000000E+00  0.00000000E+00  0.00000000E+00
 -0.42007080E-02 -0.52012925E-02  0.10990145E+00
  0.00000000E+00  0.00000000E+00  0.00000000E+00
 -0.98125622E-03 -0.12226947E-01 -0.75140245E-02
 -0.75495016E-02  0.41827820E+00  0.23614304E+00
 -0.10317938E-01  0.26888805E+00 -0.91578673E-01
 -0.20806143E-01 -0.82372859E-02 -0.11868765E+00
  0.25611210E-01 -0.18442464E-02 -0.10362866E+00
  0.23711179E-01 -0.75159134E+00 -0.81526624E-01
 -0.18888269E-01  0.21773969E+00  0.15549722E+00
