Au Ru Au O                              
   1.00000000000000     
     8.8458995818999995    0.0000000000000000    0.0000000000000000
     0.0000000000000000    8.8458995818999995    0.0000000000000000
     0.0000000000000000    0.0000000000000000   21.2549991608000006
   Au   Ru   Au   O 
    17     1    18     1
Selective dynamics
Direct
  0.0000000000000000  0.0000000000000000  0.0980900004383471   F   F   F
 -0.0016826773332997  0.9949886945874541  0.2919158603835210   T   T   T
  0.1666699945381183  0.1666699945381183  0.0000000000000000   F   F   F
  0.1703863349248075  0.1658914618480141  0.1986287221455909   T   T   T
  0.3333300053544903  0.0000000000000000  0.0980900004383471   F   F   F
  0.3333238591576677  0.9787082860555035  0.2920393112189540   T   T   T
  0.5000000000056559  0.1666699945381183  0.0000000000000000   F   F   F
  0.4962917258532846  0.1658883909900232  0.1986185176067615   T   T   T
  0.6666700243881039  0.0000000000000000  0.0980900004383471   F   F   F
  0.6683025911266588  0.9949958025983020  0.2919189742635820   T   T   T
  0.8333299756288497  0.1666699945381183  0.0000000000000000   F   F   F
  0.8333342114551368  0.1632303723435705  0.1948456343291550   T   T   T
  0.0000000000000000  0.3333300053544903  0.0980900004383471   F   F   F
 -0.0050785400731404  0.3320724644560505  0.2910406282508584   T   T   T
  0.1666699945381183  0.5000000000056559  0.0000000000000000   F   F   F
  0.1674023490640432  0.4946078670849041  0.1964788450653604   T   T   T
  0.3333300053544903  0.3333300053544903  0.0980900004383471   F   F   F
  0.3333184754588088  0.3306802428278850  0.2897736771559895   T   T   T
  0.5000000000056559  0.5000000000056559  0.0000000000000000   F   F   F
  0.4992570113688525  0.4946054339401642  0.1964783165341908   T   T   T
  0.6666700243881039  0.3333300053544903  0.0980900004383471   F   F   F
  0.6717750484377916  0.3320748487431230  0.2910409778563661   T   T   T
  0.8333299756288497  0.5000000000056559  0.0000000000000000   F   F   F
  0.8333221251716817  0.5004576396763545  0.1944515198042669   T   T   T
  0.0000000000000000  0.6666700243881039  0.0980900004383471   F   F   F
 -0.0022307235657219  0.6655875487454916  0.2918668929101954   T   T   T
  0.1666699945381183  0.8333299756288497  0.0000000000000000   F   F   F
  0.1650464116588642  0.8296748492112260  0.1946089269811270   T   T   T
  0.3333300053544903  0.6666700243881039  0.0980900004383471   F   F   F
  0.3332945308435004  0.6566373120337395  0.2909871281482453   T   T   T
  0.5000000000056559  0.8333299756288497  0.0000000000000000   F   F   F
  0.5016206684333979  0.8296627762071463  0.1946104810832582   T   T   T
  0.6666700243881039  0.6666700243881039  0.0980900004383471   F   F   F
  0.6688474486307961  0.6655963402340818  0.2918618029072114   T   T   T
  0.8333299756288497  0.8333299756288497  0.0000000000000000   F   F   F
  0.8333491245008687  0.8327461818712516  0.1948353281115573   T   T   T
  0.3333641138353478  0.2954240567889456  0.3681489826396360   T   T   T
 
  0.00000000E+00  0.00000000E+00  0.00000000E+00
  0.00000000E+00  0.00000000E+00  0.00000000E+00
  0.00000000E+00  0.00000000E+00  0.00000000E+00
  0.00000000E+00  0.00000000E+00  0.00000000E+00
  0.00000000E+00  0.00000000E+00  0.00000000E+00
  0.00000000E+00  0.00000000E+00  0.00000000E+00
  0.00000000E+00  0.00000000E+00  0.00000000E+00
  0.00000000E+00  0.00000000E+00  0.00000000E+00
  0.00000000E+00  0.00000000E+00  0.00000000E+00
  0.00000000E+00  0.00000000E+00  0.00000000E+00
  0.00000000E+00  0.00000000E+00  0.00000000E+00
  0.00000000E+00  0.00000000E+00  0.00000000E+00
  0.00000000E+00  0.00000000E+00  0.00000000E+00
  0.00000000E+00  0.00000000E+00  0.00000000E+00
  0.00000000E+00  0.00000000E+00  0.00000000E+00
  0.00000000E+00  0.00000000E+00  0.00000000E+00
  0.00000000E+00  0.00000000E+00  0.00000000E+00
  0.00000000E+00  0.00000000E+00  0.00000000E+00
  0.00000000E+00  0.00000000E+00  0.00000000E+00
  0.00000000E+00  0.00000000E+00  0.00000000E+00
  0.00000000E+00  0.00000000E+00  0.00000000E+00
  0.00000000E+00  0.00000000E+00  0.00000000E+00
  0.00000000E+00  0.00000000E+00  0.00000000E+00
  0.00000000E+00  0.00000000E+00  0.00000000E+00
  0.00000000E+00  0.00000000E+00  0.00000000E+00
  0.00000000E+00  0.00000000E+00  0.00000000E+00
  0.00000000E+00  0.00000000E+00  0.00000000E+00
  0.00000000E+00  0.00000000E+00  0.00000000E+00
  0.00000000E+00  0.00000000E+00  0.00000000E+00
  0.00000000E+00  0.00000000E+00  0.00000000E+00
  0.00000000E+00  0.00000000E+00  0.00000000E+00
  0.00000000E+00  0.00000000E+00  0.00000000E+00
  0.00000000E+00  0.00000000E+00  0.00000000E+00
  0.00000000E+00  0.00000000E+00  0.00000000E+00
  0.00000000E+00  0.00000000E+00  0.00000000E+00
  0.00000000E+00  0.00000000E+00  0.00000000E+00
  0.00000000E+00  0.00000000E+00  0.00000000E+00
