Rh O  C  H                              
   1.00000000000000     
     9.4305000304999993    0.0000000000000000    0.0000000000000000
    -3.1435169474000002   11.7619749307999992    0.0000000000000000
     0.0000000000000000    0.0000000000000000   22.2026996612999987
   Rh   C    H    O 
    60     1     4     1
Selective dynamics
Direct
  0.2163499999999985  0.3593499999999992  0.0926899999999975   F   F   F
  0.2892707297377052  0.0738697579008364  0.1379253876149674   T   T   T
  0.0756796966211087  0.4285047909669772  0.3197650615908817   T   T   T
  0.4306300000000007  0.2522099999999980  0.0695199999999971   F   F   F
  0.0020600000000002  0.4664900000000003  0.1158599999999979   F   F   F
  0.0733877328910560  0.1810263132061594  0.1614326318406064   T   T   T
  0.2873459495203490  0.3218584920084567  0.3017012715356525   T   T   T
  0.0734899999999996  0.4307799999999986  0.0000000000000000   F   F   F
  0.1449199999999990  0.1450600000000009  0.0463400000000007   F   F   F
  0.3582265708027396  0.2884442073685354  0.1849184461722925   T   T   T
  0.4297520548179180  0.0055445456480640  0.2324738185490437   T   T   T
  0.0046432726891130  0.2152336553068179  0.2769028317657847   T   T   T
  0.3592000000000013  0.0379199999999997  0.0231700000000004   F   F   F
  0.1445196663805715  0.3958276353859949  0.2096452638365662   T   T   T
  0.2132269627033413  0.1064624372283487  0.2527530965173412   T   T   T
  0.7163499999999985  0.3593499999999992  0.0926899999999975   F   F   F
  0.7876811647217595  0.0742438364502979  0.1377930665023023   T   T   T
  0.5725091087663693  0.4282017166729555  0.3189898732299621   T   T   T
  0.9306300000000007  0.2522099999999980  0.0695199999999971   F   F   F
  0.5020600000000002  0.4664900000000003  0.1158599999999979   F   F   F
  0.5725413716694110  0.1823243086296121  0.1632818266604687   T   T   T
  0.7948485744123894  0.3235965676883304  0.2979410509210788   T   T   T
  0.5734899999999996  0.4307799999999986  0.0000000000000000   F   F   F
  0.6449199999999990  0.1450600000000009  0.0463400000000007   F   F   F
  0.8583672036980068  0.2885618252220860  0.1849612840387234   T   T   T
  0.9287136746926866  0.0046214633171353  0.2321265566305101   T   T   T
  0.5033597497023120  0.2122428799689548  0.2817262915515904   T   T   T
  0.8592000000000013  0.0379199999999997  0.0231700000000004   F   F   F
  0.6442269194140280  0.3973343382652366  0.2079024823988929   T   T   T
  0.7159529321538376  0.1094459707899009  0.2542962033420164   T   T   T
  0.2163499999999985  0.8593499999999992  0.0926899999999975   F   F   F
  0.2877799999999979  0.5736399999999975  0.1390299999999982   F   F   F
  0.0752176197811223  0.9275423158131534  0.3192890052530316   T   T   T
  0.4306300000000007  0.7522099999999980  0.0695199999999971   F   F   F
  0.0020600000000002  0.9664900000000003  0.1158599999999979   F   F   F
  0.0734899999999996  0.6807799999999986  0.1621999999999986   F   F   F
  0.2897798364090851  0.8229187454771743  0.2987123088381826   T   T   T
  0.0734899999999996  0.9307799999999986  0.0000000000000000   F   F   F
  0.1449199999999990  0.6450600000000009  0.0463400000000007   F   F   F
  0.3592000000000013  0.7879199999999997  0.1853699999999989   F   F   F
  0.4293651672378507  0.5055520262872293  0.2314078933110588   T   T   T
  0.0016570956116280  0.7150405182603439  0.2775524017516419   T   T   T
  0.3592000000000013  0.5379199999999997  0.0231700000000004   F   F   F
  0.1449199999999990  0.8950600000000009  0.2085500000000025   F   F   F
  0.2165553005842708  0.6091281778627915  0.2547009530085245   T   T   T
  0.7163499999999985  0.8593499999999992  0.0926899999999975   F   F   F
  0.7877799999999979  0.5736399999999975  0.1390299999999982   F   F   F
  0.5754257348510617  0.9287308273552577  0.3192571051035964   T   T   T
  0.9306300000000007  0.7522099999999980  0.0695199999999971   F   F   F
  0.5020600000000002  0.9664900000000003  0.1158599999999979   F   F   F
  0.5734899999999996  0.6807799999999986  0.1621999999999986   F   F   F
  0.7895576070848053  0.8224533669816847  0.2985650089125316   T   T   T
  0.5734899999999996  0.9307799999999986  0.0000000000000000   F   F   F
  0.6449199999999990  0.6450600000000009  0.0463400000000007   F   F   F
  0.8592000000000013  0.7879199999999997  0.1853699999999989   F   F   F
  0.9298908281261205  0.5048292001691486  0.2325535817837374   T   T   T
  0.5025151575034039  0.7163591267057542  0.2777084252040521   T   T   T
  0.8592000000000013  0.5379199999999997  0.0231700000000004   F   F   F
  0.6449199999999990  0.8950600000000009  0.2085500000000025   F   F   F
  0.7152480581845312  0.6075087580083824  0.2567489800666903   T   T   T
  0.7885377273653819  0.3066275900554870  0.4529773952503712   T   T   T
  0.7938978057093582  0.3866095224949994  0.4761776051619990   T   T   T
  0.7905101740154120  0.2400801181606952  0.4856072768320329   T   T   T
  0.8835548437441473  0.3174675952391864  0.4231444075672516   T   T   T
  0.6873170213885630  0.2819881821963993  0.4267842840279052   T   T   T
  0.4388833365044716  0.2853897101721223  0.3568695189829492   T   T   T
 
  0.00000000E+00  0.00000000E+00  0.00000000E+00
  0.00000000E+00  0.00000000E+00  0.00000000E+00
  0.00000000E+00  0.00000000E+00  0.00000000E+00
  0.00000000E+00  0.00000000E+00  0.00000000E+00
  0.00000000E+00  0.00000000E+00  0.00000000E+00
  0.00000000E+00  0.00000000E+00  0.00000000E+00
  0.00000000E+00  0.00000000E+00  0.00000000E+00
  0.00000000E+00  0.00000000E+00  0.00000000E+00
  0.00000000E+00  0.00000000E+00  0.00000000E+00
  0.00000000E+00  0.00000000E+00  0.00000000E+00
  0.00000000E+00  0.00000000E+00  0.00000000E+00
  0.00000000E+00  0.00000000E+00  0.00000000E+00
  0.00000000E+00  0.00000000E+00  0.00000000E+00
  0.00000000E+00  0.00000000E+00  0.00000000E+00
  0.00000000E+00  0.00000000E+00  0.00000000E+00
  0.00000000E+00  0.00000000E+00  0.00000000E+00
  0.00000000E+00  0.00000000E+00  0.00000000E+00
  0.00000000E+00  0.00000000E+00  0.00000000E+00
  0.00000000E+00  0.00000000E+00  0.00000000E+00
  0.00000000E+00  0.00000000E+00  0.00000000E+00
  0.00000000E+00  0.00000000E+00  0.00000000E+00
  0.00000000E+00  0.00000000E+00  0.00000000E+00
  0.00000000E+00  0.00000000E+00  0.00000000E+00
  0.00000000E+00  0.00000000E+00  0.00000000E+00
  0.00000000E+00  0.00000000E+00  0.00000000E+00
  0.00000000E+00  0.00000000E+00  0.00000000E+00
  0.00000000E+00  0.00000000E+00  0.00000000E+00
  0.00000000E+00  0.00000000E+00  0.00000000E+00
  0.00000000E+00  0.00000000E+00  0.00000000E+00
  0.00000000E+00  0.00000000E+00  0.00000000E+00
  0.00000000E+00  0.00000000E+00  0.00000000E+00
  0.00000000E+00  0.00000000E+00  0.00000000E+00
  0.00000000E+00  0.00000000E+00  0.00000000E+00
  0.00000000E+00  0.00000000E+00  0.00000000E+00
  0.00000000E+00  0.00000000E+00  0.00000000E+00
  0.00000000E+00  0.00000000E+00  0.00000000E+00
  0.00000000E+00  0.00000000E+00  0.00000000E+00
  0.00000000E+00  0.00000000E+00  0.00000000E+00
  0.00000000E+00  0.00000000E+00  0.00000000E+00
  0.00000000E+00  0.00000000E+00  0.00000000E+00
  0.00000000E+00  0.00000000E+00  0.00000000E+00
  0.00000000E+00  0.00000000E+00  0.00000000E+00
  0.00000000E+00  0.00000000E+00  0.00000000E+00
  0.00000000E+00  0.00000000E+00  0.00000000E+00
  0.00000000E+00  0.00000000E+00  0.00000000E+00
  0.00000000E+00  0.00000000E+00  0.00000000E+00
  0.00000000E+00  0.00000000E+00  0.00000000E+00
  0.00000000E+00  0.00000000E+00  0.00000000E+00
  0.00000000E+00  0.00000000E+00  0.00000000E+00
  0.00000000E+00  0.00000000E+00  0.00000000E+00
  0.00000000E+00  0.00000000E+00  0.00000000E+00
  0.00000000E+00  0.00000000E+00  0.00000000E+00
  0.00000000E+00  0.00000000E+00  0.00000000E+00
  0.00000000E+00  0.00000000E+00  0.00000000E+00
  0.00000000E+00  0.00000000E+00  0.00000000E+00
  0.00000000E+00  0.00000000E+00  0.00000000E+00
  0.00000000E+00  0.00000000E+00  0.00000000E+00
  0.00000000E+00  0.00000000E+00  0.00000000E+00
  0.00000000E+00  0.00000000E+00  0.00000000E+00
  0.00000000E+00  0.00000000E+00  0.00000000E+00
  0.00000000E+00  0.00000000E+00  0.00000000E+00
  0.00000000E+00  0.00000000E+00  0.00000000E+00
  0.00000000E+00  0.00000000E+00  0.00000000E+00
  0.00000000E+00  0.00000000E+00  0.00000000E+00
  0.00000000E+00  0.00000000E+00  0.00000000E+00
  0.00000000E+00  0.00000000E+00  0.00000000E+00
