Rh   C    H    O                        
   1.00000000000000     
     9.4305000304999993    0.0000000000000000    0.0000000000000000
    -3.1435169474000002   11.7619749307999992    0.0000000000000000
     0.0000000000000000    0.0000000000000000   22.2026996612999987
   Rh   C    H    O 
    60     1     4     1
Selective dynamics
Direct
  0.2163499999999985  0.3593499999999992  0.0926899999999975   F   F   F
  0.2887923714258377  0.0737987871563958  0.1379052014038346   T   T   T
  0.0770821870397581  0.4301437148814337  0.3194841006825908   T   T   T
  0.4306300000000007  0.2522099999999980  0.0695199999999971   F   F   F
  0.0020600000000002  0.4664900000000003  0.1158599999999979   F   F   F
  0.0722528919946066  0.1813099514546521  0.1615847661119022   T   T   T
  0.2849106075961639  0.3225850829358390  0.2984540834729887   T   T   T
  0.0734899999999996  0.4307799999999986  0.0000000000000000   F   F   F
  0.1449199999999990  0.1450600000000009  0.0463400000000007   F   F   F
  0.3581613975225541  0.2877952757867737  0.1847267265273455   T   T   T
  0.4292756614478236  0.0055013934457258  0.2324883587548585   T   T   T
  0.0009610178980956  0.2153467516908284  0.2766537983670002   T   T   T
  0.3592000000000013  0.0379199999999997  0.0231700000000004   F   F   F
  0.1437883650210559  0.3961370672409983  0.2091948923295964   T   T   T
  0.2132262708094331  0.1074357607206557  0.2534334798036679   T   T   T
  0.7163499999999985  0.3593499999999992  0.0926899999999975   F   F   F
  0.7876437179403044  0.0746704677539476  0.1379465260125078   T   T   T
  0.5698143912883168  0.4313461259729731  0.3177317170501355   T   T   T
  0.9306300000000007  0.2522099999999980  0.0695199999999971   F   F   F
  0.5020600000000002  0.4664900000000003  0.1158599999999979   F   F   F
  0.5729635871183982  0.1820152529283589  0.1631546324518050   T   T   T
  0.7897224255806570  0.3235861235844000  0.3026096141318820   T   T   T
  0.5734899999999996  0.4307799999999986  0.0000000000000000   F   F   F
  0.6449199999999990  0.1450600000000009  0.0463400000000007   F   F   F
  0.8566655526260966  0.2890767329140775  0.1866749530594502   T   T   T
  0.9287535291159168  0.0044100101861877  0.2320891373606294   T   T   T
  0.5005799091687522  0.2150954288554991  0.2791668132420050   T   T   T
  0.8592000000000013  0.0379199999999997  0.0231700000000004   F   F   F
  0.6443808480954129  0.3969068884836759  0.2073146717451051   T   T   T
  0.7158594047145306  0.1087768928605239  0.2543811407310684   T   T   T
  0.2163499999999985  0.8593499999999992  0.0926899999999975   F   F   F
  0.2877799999999979  0.5736399999999975  0.1390299999999982   F   F   F
  0.0749523686352520  0.9279053117772568  0.3191470758809022   T   T   T
  0.4306300000000007  0.7522099999999980  0.0695199999999971   F   F   F
  0.0020600000000002  0.9664900000000003  0.1158599999999979   F   F   F
  0.0734899999999996  0.6807799999999986  0.1621999999999986   F   F   F
  0.2892188952256474  0.8226215891717255  0.2986123535590064   T   T   T
  0.0734899999999996  0.9307799999999986  0.0000000000000000   F   F   F
  0.1449199999999990  0.6450600000000009  0.0463400000000007   F   F   F
  0.3592000000000013  0.7879199999999997  0.1853699999999989   F   F   F
  0.4292880152101344  0.5048190418517652  0.2316473225124695   T   T   T
  0.0009314387750332  0.7149381492332678  0.2777036698550336   T   T   T
  0.3592000000000013  0.5379199999999997  0.0231700000000004   F   F   F
  0.1449199999999990  0.8950600000000009  0.2085500000000025   F   F   F
  0.2160627241788186  0.6093296881090857  0.2548623364414032   T   T   T
  0.7163499999999985  0.8593499999999992  0.0926899999999975   F   F   F
  0.7877799999999979  0.5736399999999975  0.1390299999999982   F   F   F
  0.5742439427985425  0.9275335546033041  0.3192360686297142   T   T   T
  0.9306300000000007  0.7522099999999980  0.0695199999999971   F   F   F
  0.5020600000000002  0.9664900000000003  0.1158599999999979   F   F   F
  0.5734899999999996  0.6807799999999986  0.1621999999999986   F   F   F
  0.7890872378250204  0.8225266281440120  0.2985806713865580   T   T   T
  0.5734899999999996  0.9307799999999986  0.0000000000000000   F   F   F
  0.6449199999999990  0.6450600000000009  0.0463400000000007   F   F   F
  0.8592000000000013  0.7879199999999997  0.1853699999999989   F   F   F
  0.9289069966443898  0.5041866849193277  0.2325115885182263   T   T   T
  0.5022173466877204  0.7153537662490282  0.2776281945855423   T   T   T
  0.8592000000000013  0.5379199999999997  0.0231700000000004   F   F   F
  0.6449199999999990  0.8950600000000009  0.2085500000000025   F   F   F
  0.7154604867397077  0.6077326246379524  0.2555090943380921   T   T   T
  0.7704707891868213  0.3076227017423701  0.4077186574233912   T   T   T
  0.7582658103276907  0.3807014881516443  0.4338636411410552   T   T   T
  0.7309988362936605  0.2285852244055562  0.4331234349617303   T   T   T
  0.8884237303430169  0.3173600422026803  0.4006016489882164   T   T   T
  0.6366869103697201  0.2889018959999837  0.3778016590320047   T   T   T
  0.5015866150163149  0.2820064035453907  0.3651676076457532   T   T   T
 
  0.00000000E+00  0.00000000E+00  0.00000000E+00
  0.00000000E+00  0.00000000E+00  0.00000000E+00
  0.00000000E+00  0.00000000E+00  0.00000000E+00
  0.00000000E+00  0.00000000E+00  0.00000000E+00
  0.00000000E+00  0.00000000E+00  0.00000000E+00
  0.00000000E+00  0.00000000E+00  0.00000000E+00
  0.00000000E+00  0.00000000E+00  0.00000000E+00
  0.00000000E+00  0.00000000E+00  0.00000000E+00
  0.00000000E+00  0.00000000E+00  0.00000000E+00
  0.00000000E+00  0.00000000E+00  0.00000000E+00
  0.00000000E+00  0.00000000E+00  0.00000000E+00
  0.00000000E+00  0.00000000E+00  0.00000000E+00
  0.00000000E+00  0.00000000E+00  0.00000000E+00
  0.00000000E+00  0.00000000E+00  0.00000000E+00
  0.00000000E+00  0.00000000E+00  0.00000000E+00
  0.00000000E+00  0.00000000E+00  0.00000000E+00
  0.00000000E+00  0.00000000E+00  0.00000000E+00
  0.00000000E+00  0.00000000E+00  0.00000000E+00
  0.00000000E+00  0.00000000E+00  0.00000000E+00
  0.00000000E+00  0.00000000E+00  0.00000000E+00
  0.00000000E+00  0.00000000E+00  0.00000000E+00
  0.00000000E+00  0.00000000E+00  0.00000000E+00
  0.00000000E+00  0.00000000E+00  0.00000000E+00
  0.00000000E+00  0.00000000E+00  0.00000000E+00
  0.00000000E+00  0.00000000E+00  0.00000000E+00
  0.00000000E+00  0.00000000E+00  0.00000000E+00
  0.00000000E+00  0.00000000E+00  0.00000000E+00
  0.00000000E+00  0.00000000E+00  0.00000000E+00
  0.00000000E+00  0.00000000E+00  0.00000000E+00
  0.00000000E+00  0.00000000E+00  0.00000000E+00
  0.00000000E+00  0.00000000E+00  0.00000000E+00
  0.00000000E+00  0.00000000E+00  0.00000000E+00
  0.00000000E+00  0.00000000E+00  0.00000000E+00
  0.00000000E+00  0.00000000E+00  0.00000000E+00
  0.00000000E+00  0.00000000E+00  0.00000000E+00
  0.00000000E+00  0.00000000E+00  0.00000000E+00
  0.00000000E+00  0.00000000E+00  0.00000000E+00
  0.00000000E+00  0.00000000E+00  0.00000000E+00
  0.00000000E+00  0.00000000E+00  0.00000000E+00
  0.00000000E+00  0.00000000E+00  0.00000000E+00
  0.00000000E+00  0.00000000E+00  0.00000000E+00
  0.00000000E+00  0.00000000E+00  0.00000000E+00
  0.00000000E+00  0.00000000E+00  0.00000000E+00
  0.00000000E+00  0.00000000E+00  0.00000000E+00
  0.00000000E+00  0.00000000E+00  0.00000000E+00
  0.00000000E+00  0.00000000E+00  0.00000000E+00
  0.00000000E+00  0.00000000E+00  0.00000000E+00
  0.00000000E+00  0.00000000E+00  0.00000000E+00
  0.00000000E+00  0.00000000E+00  0.00000000E+00
  0.00000000E+00  0.00000000E+00  0.00000000E+00
  0.00000000E+00  0.00000000E+00  0.00000000E+00
  0.00000000E+00  0.00000000E+00  0.00000000E+00
  0.00000000E+00  0.00000000E+00  0.00000000E+00
  0.00000000E+00  0.00000000E+00  0.00000000E+00
  0.00000000E+00  0.00000000E+00  0.00000000E+00
  0.00000000E+00  0.00000000E+00  0.00000000E+00
  0.00000000E+00  0.00000000E+00  0.00000000E+00
  0.00000000E+00  0.00000000E+00  0.00000000E+00
  0.00000000E+00  0.00000000E+00  0.00000000E+00
  0.00000000E+00  0.00000000E+00  0.00000000E+00
  0.00000000E+00  0.00000000E+00  0.00000000E+00
  0.00000000E+00  0.00000000E+00  0.00000000E+00
  0.00000000E+00  0.00000000E+00  0.00000000E+00
  0.00000000E+00  0.00000000E+00  0.00000000E+00
  0.00000000E+00  0.00000000E+00  0.00000000E+00
  0.00000000E+00  0.00000000E+00  0.00000000E+00
