Cu O                                    
   1.00000000000000     
     8.9160995483000001    0.0000000000000000    0.0000000000000000
    -2.9720473006999999   11.1203936320000007    0.0000000000000000
     0.0000000000000000    0.0000000000000000   21.8097991942999982
   Cu   O 
    60     1
Selective dynamics
Direct
  0.2618999999999971  0.3690500000000014  0.0892100000000013   F   F   F
  0.3348792240075207  0.0858424839686022  0.1348414811432625   T   T   T
  0.1181603752896198  0.4462523001840782  0.3091033768363662   T   T   T
  0.4761900000000026  0.2618999999999971  0.0669100000000000   F   F   F
  0.0476200000000020  0.4761900000000026  0.1115100000000027   F   F   F
  0.1214057316092419  0.1934833433208561  0.1570604386005883   T   T   T
  0.3281482315110568  0.3372822802239104  0.2954214164493171   T   T   T
  0.1190500000000014  0.4404800000000009  0.0000000000000000   F   F   F
  0.1904800000000009  0.1547600000000031  0.0446099999999987   F   F   F
  0.4065236036618043  0.3015658859965571  0.1813304954843951   T   T   T
  0.4768767993133159  0.0181069580797797  0.2246126738940518   T   T   T
  0.0492722961202053  0.2303266736536465  0.2697181434053469   T   T   T
  0.4047600000000031  0.0476200000000020  0.0223000000000013   F   F   F
  0.1941390790136331  0.4089506656878510  0.2026948192836371   T   T   T
  0.2615900235148888  0.1224453102959060  0.2468333045956183   T   T   T
  0.7618999999999971  0.3690500000000014  0.0892100000000013   F   F   F
  0.8344411710445582  0.0854494737048466  0.1345476815723105   T   T   T
  0.6311729717297851  0.4551911142416794  0.3120689508789561   T   T   T
  0.9761900000000026  0.2618999999999971  0.0669100000000000   F   F   F
  0.5476200000000020  0.4761900000000026  0.1115100000000027   F   F   F
  0.6191714936951079  0.1949013192703244  0.1597122566812552   T   T   T
  0.8392549077391368  0.3394963871145193  0.2891166629655629   T   T   T
  0.6190500000000014  0.4404800000000009  0.0000000000000000   F   F   F
  0.6904800000000009  0.1547600000000031  0.0446099999999987   F   F   F
  0.9056317886007502  0.3016665801236488  0.1788922530314225   T   T   T
  0.9767621911422387  0.0178580457647855  0.2249629679180574   T   T   T
  0.5504901245520408  0.2217109744850219  0.2779165678353128   T   T   T
  0.9047600000000031  0.0476200000000020  0.0223000000000013   F   F   F
  0.6906348387210267  0.4103186607080142  0.2025730622157828   T   T   T
  0.7655435869760359  0.1239570617611628  0.2475988582967087   T   T   T
  0.2618999999999971  0.8690500000000014  0.0892100000000013   F   F   F
  0.3333299999999966  0.5833300000000037  0.1338200000000001   F   F   F
  0.1210772522587120  0.9423385999134263  0.3096224256733365   T   T   T
  0.4761900000000026  0.7618999999999971  0.0669100000000000   F   F   F
  0.0476200000000020  0.9761900000000026  0.1115100000000027   F   F   F
  0.1190500000000014  0.6904800000000009  0.1561200000000014   F   F   F
  0.3375808116218166  0.8388467003362166  0.2896022317821867   T   T   T
  0.1190500000000014  0.9404800000000009  0.0000000000000000   F   F   F
  0.1904800000000009  0.6547600000000031  0.0446099999999987   F   F   F
  0.4047600000000031  0.7976200000000020  0.1784200000000027   F   F   F
  0.4775554808345112  0.5191770519717642  0.2258223749533149   T   T   T
  0.0514613204836061  0.7294997307037073  0.2708465672803796   T   T   T
  0.4047600000000031  0.5476200000000020  0.0223000000000013   F   F   F
  0.1904800000000009  0.9047600000000031  0.2007199999999969   F   F   F
  0.2650779965243583  0.6246213650568320  0.2479542204729380   T   T   T
  0.7618999999999971  0.8690500000000014  0.0892100000000013   F   F   F
  0.8333299999999966  0.5833300000000037  0.1338200000000001   F   F   F
  0.6214899357737669  0.9448179418953836  0.3083947717972376   T   T   T
  0.9761900000000026  0.7618999999999971  0.0669100000000000   F   F   F
  0.5476200000000020  0.9761900000000026  0.1115100000000027   F   F   F
  0.6190500000000014  0.6904800000000009  0.1561200000000014   F   F   F
  0.8371724059170640  0.8391860515019968  0.2896238620566532   T   T   T
  0.6190500000000014  0.9404800000000009  0.0000000000000000   F   F   F
  0.6904800000000009  0.6547600000000031  0.0446099999999987   F   F   F
  0.9047600000000031  0.7976200000000020  0.1784200000000027   F   F   F
  0.9758299956000848  0.5196223643020558  0.2252159968542995   T   T   T
  0.5513966373419222  0.7297839052842673  0.2708471798858822   T   T   T
  0.9047600000000031  0.5476200000000020  0.0223000000000013   F   F   F
  0.6904800000000009  0.9047600000000031  0.2007199999999969   F   F   F
  0.7659026213317033  0.6252452488494896  0.2482195143094566   T   T   T
  0.4951957622778739  0.3149658232628892  0.3441380901707211   T   T   T
 
  0.00000000E+00  0.00000000E+00  0.00000000E+00
  0.00000000E+00  0.00000000E+00  0.00000000E+00
  0.00000000E+00  0.00000000E+00  0.00000000E+00
  0.00000000E+00  0.00000000E+00  0.00000000E+00
  0.00000000E+00  0.00000000E+00  0.00000000E+00
  0.00000000E+00  0.00000000E+00  0.00000000E+00
  0.00000000E+00  0.00000000E+00  0.00000000E+00
  0.00000000E+00  0.00000000E+00  0.00000000E+00
  0.00000000E+00  0.00000000E+00  0.00000000E+00
  0.00000000E+00  0.00000000E+00  0.00000000E+00
  0.00000000E+00  0.00000000E+00  0.00000000E+00
  0.00000000E+00  0.00000000E+00  0.00000000E+00
  0.00000000E+00  0.00000000E+00  0.00000000E+00
  0.00000000E+00  0.00000000E+00  0.00000000E+00
  0.00000000E+00  0.00000000E+00  0.00000000E+00
  0.00000000E+00  0.00000000E+00  0.00000000E+00
  0.00000000E+00  0.00000000E+00  0.00000000E+00
  0.00000000E+00  0.00000000E+00  0.00000000E+00
  0.00000000E+00  0.00000000E+00  0.00000000E+00
  0.00000000E+00  0.00000000E+00  0.00000000E+00
  0.00000000E+00  0.00000000E+00  0.00000000E+00
  0.00000000E+00  0.00000000E+00  0.00000000E+00
  0.00000000E+00  0.00000000E+00  0.00000000E+00
  0.00000000E+00  0.00000000E+00  0.00000000E+00
  0.00000000E+00  0.00000000E+00  0.00000000E+00
  0.00000000E+00  0.00000000E+00  0.00000000E+00
  0.00000000E+00  0.00000000E+00  0.00000000E+00
  0.00000000E+00  0.00000000E+00  0.00000000E+00
  0.00000000E+00  0.00000000E+00  0.00000000E+00
  0.00000000E+00  0.00000000E+00  0.00000000E+00
  0.00000000E+00  0.00000000E+00  0.00000000E+00
  0.00000000E+00  0.00000000E+00  0.00000000E+00
  0.00000000E+00  0.00000000E+00  0.00000000E+00
  0.00000000E+00  0.00000000E+00  0.00000000E+00
  0.00000000E+00  0.00000000E+00  0.00000000E+00
  0.00000000E+00  0.00000000E+00  0.00000000E+00
  0.00000000E+00  0.00000000E+00  0.00000000E+00
  0.00000000E+00  0.00000000E+00  0.00000000E+00
  0.00000000E+00  0.00000000E+00  0.00000000E+00
  0.00000000E+00  0.00000000E+00  0.00000000E+00
  0.00000000E+00  0.00000000E+00  0.00000000E+00
  0.00000000E+00  0.00000000E+00  0.00000000E+00
  0.00000000E+00  0.00000000E+00  0.00000000E+00
  0.00000000E+00  0.00000000E+00  0.00000000E+00
  0.00000000E+00  0.00000000E+00  0.00000000E+00
  0.00000000E+00  0.00000000E+00  0.00000000E+00
  0.00000000E+00  0.00000000E+00  0.00000000E+00
  0.00000000E+00  0.00000000E+00  0.00000000E+00
  0.00000000E+00  0.00000000E+00  0.00000000E+00
  0.00000000E+00  0.00000000E+00  0.00000000E+00
  0.00000000E+00  0.00000000E+00  0.00000000E+00
  0.00000000E+00  0.00000000E+00  0.00000000E+00
  0.00000000E+00  0.00000000E+00  0.00000000E+00
  0.00000000E+00  0.00000000E+00  0.00000000E+00
  0.00000000E+00  0.00000000E+00  0.00000000E+00
  0.00000000E+00  0.00000000E+00  0.00000000E+00
  0.00000000E+00  0.00000000E+00  0.00000000E+00
  0.00000000E+00  0.00000000E+00  0.00000000E+00
  0.00000000E+00  0.00000000E+00  0.00000000E+00
  0.00000000E+00  0.00000000E+00  0.00000000E+00
  0.00000000E+00  0.00000000E+00  0.00000000E+00
