Ag Ir Ag C  H  O                        
   1.00000000000000     
     8.8247003554999992    0.0000000000000000    0.0000000000000000
    -4.4123501777999996    7.6424146886999997    0.0000000000000000
     0.0000000000000000    0.0000000000000000   22.2052993773999994
   Ag   Ir   Ag   C    H    O 
    17     1    18     1     4     1
Selective dynamics
Direct
  0.0000000000000000  0.0000000000000000  0.0000000000000000   F   F   F
  0.0038298321160608  0.0045415882430388  0.3275975873549689   T   T   T
  0.2224001197226196  0.1124706097506547  0.2173316775360215   T   T   T
  0.1111100018250966  0.2222200036476778  0.1081599965476912   F   F   F
  0.3333300053827557  0.0000000000000000  0.0000000000000000   F   F   F
  0.3350226464496209  0.0051729338294403  0.3271064702898860   T   T   T
  0.5563608930256181  0.1103202638721169  0.2173891655223123   T   T   T
  0.4444400072078523  0.2222200036476778  0.1081599965476912   F   F   F
  0.6666700243632988  0.0000000000000000  0.0000000000000000   F   F   F
  0.6666113749182109  0.0000641641302666  0.3279765999189889   T   T   T
  0.8897701256062646  0.1135637356357885  0.2182421763897692   T   T   T
  0.7777799963856893  0.2222200036476778  0.1081599965476912   F   F   F
  0.9999999999896119  0.3333300054715238  0.0000000000000000   F   F   F
  0.9965752508501643  0.3225603060845809  0.3298636791894199   T   T   T
  0.2223540191490002  0.4443197348344208  0.2198226384030675   T   T   T
  0.1111100017295215  0.5555599927438948  0.1081599965476912   F   F   F
  0.3333300054856849  0.3333300054715238  0.0000000000000000   F   F   F
  0.3362379880508766  0.3303993549571345  0.3255748440701879   T   T   T
  0.5542137176948789  0.4442902934115953  0.2173298631921685   T   T   T
  0.4444400072255874  0.5555599927438948  0.1081599965476912   F   F   F
  0.6666700244662280  0.3333300054715238  0.0000000000000000   F   F   F
  0.6615213271513058  0.3316433540908020  0.3270947550186503   T   T   T
  0.8898567613884317  0.4455312402648808  0.2194870899623839   T   T   T
  0.7777799964034244  0.5555599927438948  0.1081599965476912   F   F   F
  0.9999999999660858  0.6666700244012347  0.0000000000000000   F   F   F
  0.9908246524462154  0.6758122457310255  0.3303338557980914   T   T   T
  0.2211455534386812  0.7768371853558729  0.2194864572196440   T   T   T
  0.1111100017911895  0.8888900280489196  0.1081599965476912   F   F   F
  0.3333300054621589  0.6666700244012347  0.0000000000000000   F   F   F
  0.3440590131669083  0.6701205215427691  0.3298424015272774   T   T   T
  0.5531204028325022  0.7769140680215086  0.2182378791340217   T   T   T
  0.4444400072872554  0.8888900280489196  0.1081599965476912   F   F   F
  0.6666700244427020  0.6666700244012347  0.0000000000000000   F   F   F
  0.6620350760044383  0.6627703119988120  0.3276156425092740   T   T   T
  0.8899555499426304  0.7767171653952590  0.2186620359627597   T   T   T
  0.7777799964650924  0.8888900280489196  0.1081599965476912   F   F   F
  0.3374270705006099  0.3289600304166449  0.4196271530031292   T   T   T
  0.4026121055255629  0.4645157452299503  0.4357506880668487   T   T   T
  0.2019374629651529  0.2614341582045231  0.4357723077656473   T   T   T
  0.4048632879095396  0.2639166826679342  0.4382180776632796   T   T   T
  0.1058644140075537  0.5606986510355105  0.4401954545477195   T   T   T
  0.1059384768321958  0.5607240418480284  0.3965929438365923   T   T   T
 
  0.00000000E+00  0.00000000E+00  0.00000000E+00
  0.00000000E+00  0.00000000E+00  0.00000000E+00
  0.00000000E+00  0.00000000E+00  0.00000000E+00
  0.00000000E+00  0.00000000E+00  0.00000000E+00
  0.00000000E+00  0.00000000E+00  0.00000000E+00
  0.00000000E+00  0.00000000E+00  0.00000000E+00
  0.00000000E+00  0.00000000E+00  0.00000000E+00
  0.00000000E+00  0.00000000E+00  0.00000000E+00
  0.00000000E+00  0.00000000E+00  0.00000000E+00
  0.00000000E+00  0.00000000E+00  0.00000000E+00
  0.00000000E+00  0.00000000E+00  0.00000000E+00
  0.00000000E+00  0.00000000E+00  0.00000000E+00
  0.00000000E+00  0.00000000E+00  0.00000000E+00
  0.00000000E+00  0.00000000E+00  0.00000000E+00
  0.00000000E+00  0.00000000E+00  0.00000000E+00
  0.00000000E+00  0.00000000E+00  0.00000000E+00
  0.00000000E+00  0.00000000E+00  0.00000000E+00
  0.00000000E+00  0.00000000E+00  0.00000000E+00
  0.00000000E+00  0.00000000E+00  0.00000000E+00
  0.00000000E+00  0.00000000E+00  0.00000000E+00
  0.00000000E+00  0.00000000E+00  0.00000000E+00
  0.00000000E+00  0.00000000E+00  0.00000000E+00
  0.00000000E+00  0.00000000E+00  0.00000000E+00
  0.00000000E+00  0.00000000E+00  0.00000000E+00
  0.00000000E+00  0.00000000E+00  0.00000000E+00
  0.00000000E+00  0.00000000E+00  0.00000000E+00
  0.00000000E+00  0.00000000E+00  0.00000000E+00
  0.00000000E+00  0.00000000E+00  0.00000000E+00
  0.00000000E+00  0.00000000E+00  0.00000000E+00
  0.00000000E+00  0.00000000E+00  0.00000000E+00
  0.00000000E+00  0.00000000E+00  0.00000000E+00
  0.00000000E+00  0.00000000E+00  0.00000000E+00
  0.00000000E+00  0.00000000E+00  0.00000000E+00
  0.00000000E+00  0.00000000E+00  0.00000000E+00
  0.00000000E+00  0.00000000E+00  0.00000000E+00
  0.00000000E+00  0.00000000E+00  0.00000000E+00
  0.00000000E+00  0.00000000E+00  0.00000000E+00
  0.00000000E+00  0.00000000E+00  0.00000000E+00
  0.00000000E+00  0.00000000E+00  0.00000000E+00
  0.00000000E+00  0.00000000E+00  0.00000000E+00
  0.00000000E+00  0.00000000E+00  0.00000000E+00
  0.00000000E+00  0.00000000E+00  0.00000000E+00
