Ag Ir Ag C  H  O                        
   1.00000000000000     
     8.8247003554999992    0.0000000000000000    0.0000000000000000
    -4.4123501777999996    7.6424146886999997    0.0000000000000000
     0.0000000000000000    0.0000000000000000   22.2052993773999994
   Ag   Ir   Ag   C    H    O 
    17     1    18     1     4     1
Selective dynamics
Direct
  0.0000000000000000  0.0000000000000000  0.0000000000000000   F   F   F
  0.0063587139819616  0.0054612223742149  0.3291004052974401   T   T   T
  0.2224476906460808  0.1090380692463461  0.2171729967440478   T   T   T
  0.1111100018250966  0.2222200036476778  0.1081599965476912   F   F   F
  0.3333300053827557  0.0000000000000000  0.0000000000000000   F   F   F
  0.3365945891640003  0.0053433068064573  0.3298950960970867   T   T   T
  0.5570061375401880  0.1096541495875383  0.2185957020418673   T   T   T
  0.4444400072078523  0.2222200036476778  0.1081599965476912   F   F   F
  0.6666700243632988  0.0000000000000000  0.0000000000000000   F   F   F
  0.6688085751061204 -0.0021908420030344  0.3289105654668402   T   T   T
  0.8905346019920531  0.1136314593465037  0.2192698092645763   T   T   T
  0.7777799963856893  0.2222200036476778  0.1081599965476912   F   F   F
  0.9999999999896119  0.3333300054715238  0.0000000000000000   F   F   F
  0.0007358063798358  0.3231856058720039  0.3328263098159228   T   T   T
  0.2225518243909301  0.4441089926126766  0.2190383926005824   T   T   T
  0.1111100017295215  0.5555599927438948  0.1081599965476912   F   F   F
  0.3333300054856849  0.3333300054715238  0.0000000000000000   F   F   F
  0.3388373752443650  0.3278334690357625  0.3176198023596393   T   T   T
  0.5576286630314575  0.4442162022212960  0.2171684708921823   T   T   T
  0.4444400072255874  0.5555599927438948  0.1081599965476912   F   F   F
  0.6666700244662280  0.3333300054715238  0.0000000000000000   F   F   F
  0.6613337181217960  0.3300675359649476  0.3298881389036769   T   T   T
  0.8904581607171632  0.4443781542807842  0.2197004611699071   T   T   T
  0.7777799964034244  0.5555599927438948  0.1081599965476912   F   F   F
  0.9999999999660858  0.6666700244012347  0.0000000000000000   F   F   F
  0.9918803630560198  0.6747834316880935  0.3315176860869844   T   T   T
  0.2222667366120082  0.7762071595669744  0.2197029835833539   T   T   T
  0.1111100017911895  0.8888900280489196  0.1081599965476912   F   F   F
  0.3333300054621589  0.6666700244012347  0.0000000000000000   F   F   F
  0.3434481888964378  0.6658974494351237  0.3328260093879993   T   T   T
  0.5530241156507900  0.7761166985909923  0.2192684750635454   T   T   T
  0.4444400072872554  0.8888900280489196  0.1081599965476912   F   F   F
  0.6666700244427020  0.6666700244012347  0.0000000000000000   F   F   F
  0.6611974018500575  0.6603010096222638  0.3290995562907096   T   T   T
  0.8898914331885573  0.7767614643968404  0.2193538417011686   T   T   T
  0.7777799964650924  0.8888900280489196  0.1081599965476912   F   F   F
  0.3253491036021017  0.3413072014051033  0.4828923350421762   T   T   T
  0.4415460499359228  0.4274336089662099  0.5092313146171757   T   T   T
  0.2392210773489289  0.2251091166046945  0.5092278220618645   T   T   T
  0.3658125455073133  0.3008547415587678  0.4421483895014799   T   T   T
  0.2563755241693291  0.4102858228233661  0.4703596156383923   T   T   T
  0.1063964017728814  0.5602429450190120  0.3880699608647654   T   T   T
 
  0.00000000E+00  0.00000000E+00  0.00000000E+00
  0.00000000E+00  0.00000000E+00  0.00000000E+00
  0.00000000E+00  0.00000000E+00  0.00000000E+00
  0.00000000E+00  0.00000000E+00  0.00000000E+00
  0.00000000E+00  0.00000000E+00  0.00000000E+00
  0.00000000E+00  0.00000000E+00  0.00000000E+00
  0.00000000E+00  0.00000000E+00  0.00000000E+00
  0.00000000E+00  0.00000000E+00  0.00000000E+00
  0.00000000E+00  0.00000000E+00  0.00000000E+00
  0.00000000E+00  0.00000000E+00  0.00000000E+00
  0.00000000E+00  0.00000000E+00  0.00000000E+00
  0.00000000E+00  0.00000000E+00  0.00000000E+00
  0.00000000E+00  0.00000000E+00  0.00000000E+00
  0.00000000E+00  0.00000000E+00  0.00000000E+00
  0.00000000E+00  0.00000000E+00  0.00000000E+00
  0.00000000E+00  0.00000000E+00  0.00000000E+00
  0.00000000E+00  0.00000000E+00  0.00000000E+00
  0.00000000E+00  0.00000000E+00  0.00000000E+00
  0.00000000E+00  0.00000000E+00  0.00000000E+00
  0.00000000E+00  0.00000000E+00  0.00000000E+00
  0.00000000E+00  0.00000000E+00  0.00000000E+00
  0.00000000E+00  0.00000000E+00  0.00000000E+00
  0.00000000E+00  0.00000000E+00  0.00000000E+00
  0.00000000E+00  0.00000000E+00  0.00000000E+00
  0.00000000E+00  0.00000000E+00  0.00000000E+00
  0.00000000E+00  0.00000000E+00  0.00000000E+00
  0.00000000E+00  0.00000000E+00  0.00000000E+00
  0.00000000E+00  0.00000000E+00  0.00000000E+00
  0.00000000E+00  0.00000000E+00  0.00000000E+00
  0.00000000E+00  0.00000000E+00  0.00000000E+00
  0.00000000E+00  0.00000000E+00  0.00000000E+00
  0.00000000E+00  0.00000000E+00  0.00000000E+00
  0.00000000E+00  0.00000000E+00  0.00000000E+00
  0.00000000E+00  0.00000000E+00  0.00000000E+00
  0.00000000E+00  0.00000000E+00  0.00000000E+00
  0.00000000E+00  0.00000000E+00  0.00000000E+00
  0.00000000E+00  0.00000000E+00  0.00000000E+00
  0.00000000E+00  0.00000000E+00  0.00000000E+00
  0.00000000E+00  0.00000000E+00  0.00000000E+00
  0.00000000E+00  0.00000000E+00  0.00000000E+00
  0.00000000E+00  0.00000000E+00  0.00000000E+00
  0.00000000E+00  0.00000000E+00  0.00000000E+00
