Au Ni Au C  H  O                        
   1.00000000000000     
     8.8458995818999995    0.0000000000000000    0.0000000000000000
    -4.4229497909999997    7.6607737573000003    0.0000000000000000
     0.0000000000000000    0.0000000000000000   22.2227001189999989
   Au   Ni   Au   C    H    O 
    17     1    18     1     4     1
Selective dynamics
Direct
  0.0000000000000000  0.0000000000000000  0.0000000000000000   F   F   F
  0.9969174883784391  0.0089189090644991  0.3289016606982286   T   T   T
  0.2198671155753665  0.1225944493978484  0.2205156391006839   T   T   T
  0.1111100036335770  0.2222200072646458  0.1083399993748557   F   F   F
  0.3333300181287697  0.0000000000000000  0.0000000000000000   F   F   F
  0.3282403384910099  0.0123328459292432  0.3277656874853290   T   T   T
  0.5510078438457843  0.1162297655713620  0.2164360526007431   T   T   T
  0.4444399948572268  0.2222200072646458  0.1083399993748557   F   F   F
  0.6666700087876549  0.0000000000000000  0.0000000000000000   F   F   F
  0.6612375643990799  0.0062135667075897  0.3283484630509013   T   T   T
  0.8859432674701886  0.1171154215153276  0.2179788218582560   T   T   T
  0.7777800124212320  0.2222200072646458  0.1083399993748557   F   F   F
  0.9999999925351943  0.3333300031953925  0.0000000000000000   F   F   F
  0.9756616797932688  0.3325388264016554  0.3308564428429251   T   T   T
  0.2184145179697865  0.4488364045618486  0.2221269511625047   T   T   T
  0.1111100262929553  0.5555600161073072  0.1083399993748557   F   F   F
  0.3333300106639641  0.3333300031953925  0.0000000000000000   F   F   F
  0.3482170990800010  0.3200955576664847  0.3522500070955437   T   T   T
  0.5447976999096488  0.4476149314050679  0.2204632464494936   T   T   T
  0.4444400175166051  0.5555600161073072  0.1083399993748557   F   F   F
  0.6666700147754128  0.3333300031953925  0.0000000000000000   F   F   F
  0.6553417231920766  0.3393268281690168  0.3276267661670974   T   T   T
  0.8853327043408973  0.4489742198092579  0.2182402205123520   T   T   T
  0.7777800080624431  0.5555600161073072  0.1083399993748557   F   F   F
  0.0000000093958050  0.6666700275717331  0.0000000000000000   F   F   F
  0.9924539977955480  0.6751549448642344  0.3287276369710426   T   T   T
  0.2185520905043544  0.7821839176696929  0.2182635073392669   T   T   T
  0.1111100207962252  0.8888900503700583  0.1083399993748557   F   F   F
  0.3333300276376221  0.6666700275717331  0.0000000000000000   F   F   F
  0.3349969176102359  0.6918251782693700  0.3308825915515600   T   T   T
  0.5502433290256427  0.7813773060618668  0.2179649870389250   T   T   T
  0.4444400120198750  0.8888900503700583  0.1083399993748557   F   F   F
  0.6666700181834599  0.6666700275717331  0.0000000000000000   F   F   F
  0.6590012204574891  0.6710002117894492  0.3287653043342720   T   T   T
  0.8850619228663383  0.7825792183814597  0.2174230045457591   T   T   T
  0.7777800026787602  0.8888900503700583  0.1083399993748557   F   F   F
  0.3682374695232129  0.3069541651241035  0.4520576573015258   T   T   T
  0.4608665598502015  0.4249753175050352  0.4761278726564684   T   T   T
  0.2526466080667231  0.2223098433731552  0.4787847471857782   T   T   T
  0.4325363194592237  0.2341784525636836  0.4390566874145022   T   T   T
  0.2889742888809682  0.3819934330347832  0.4215275786181233   T   T   T
  0.2312263785077426  0.4365900907206842  0.3823068320142302   T   T   T
 
  0.00000000E+00  0.00000000E+00  0.00000000E+00
 -0.31361201E-03 -0.88987203E-02  0.23763572E-03
  0.30200993E-02  0.31010520E-02  0.19651185E-02
  0.00000000E+00  0.00000000E+00  0.00000000E+00
  0.00000000E+00  0.00000000E+00  0.00000000E+00
  0.96544488E-02 -0.95818206E-02 -0.68464719E-02
  0.28363178E-02 -0.10906455E-02  0.31548467E-02
  0.00000000E+00  0.00000000E+00  0.00000000E+00
  0.00000000E+00  0.00000000E+00  0.00000000E+00
 -0.64523326E-02  0.44138494E-02 -0.10825474E-01
  0.12962236E-02 -0.29824407E-02 -0.19586238E-03
  0.00000000E+00  0.00000000E+00  0.00000000E+00
  0.00000000E+00  0.00000000E+00  0.00000000E+00
  0.38520234E-01  0.10667590E-01  0.24788457E-01
  0.37148452E-02 -0.22768754E-02 -0.12548031E-01
  0.00000000E+00  0.00000000E+00  0.00000000E+00
  0.00000000E+00  0.00000000E+00  0.00000000E+00
 -0.77629057E-01  0.39673735E-01 -0.11450418E+00
 -0.24329061E-02 -0.28506648E-02  0.66017942E-03
  0.00000000E+00  0.00000000E+00  0.00000000E+00
  0.00000000E+00  0.00000000E+00  0.00000000E+00
  0.13190815E-01 -0.53112815E-02 -0.70449435E-02
  0.41728910E-02 -0.14396528E-03 -0.94930295E-03
  0.00000000E+00  0.00000000E+00  0.00000000E+00
  0.00000000E+00  0.00000000E+00  0.00000000E+00
 -0.59069973E-02  0.41172679E-02 -0.80326501E-02
  0.14400302E-02 -0.12418842E-02 -0.78144165E-03
  0.00000000E+00  0.00000000E+00  0.00000000E+00
  0.00000000E+00  0.00000000E+00  0.00000000E+00
  0.12911159E-01 -0.42325168E-01  0.23443466E-01
  0.34193543E-02  0.63335087E-03  0.19458930E-03
  0.00000000E+00  0.00000000E+00  0.00000000E+00
  0.00000000E+00  0.00000000E+00  0.00000000E+00
  0.60637463E-02  0.36611562E-02  0.74505896E-03
  0.13919090E-02 -0.12606189E-02 -0.31880652E-02
  0.00000000E+00  0.00000000E+00  0.00000000E+00
 -0.24356071E+00  0.14331369E+00  0.82888494E-01
  0.33549708E-01 -0.34819028E-02  0.14514038E+00
  0.26272764E-01 -0.30490024E-01  0.15897170E+00
 -0.18850994E+00  0.10865285E+00 -0.98633104E-01
  0.63032121E+00 -0.35407225E+00  0.26618415E+00
 -0.24393011E+00  0.12830847E+00 -0.33313841E+00
