Ir  C  H  O                             
   1.00000000000000     
     6.7203998566000003    0.0000000000000000    0.0000000000000000
     0.0000000000000000    8.2306995391999997    0.0000000000000000
     0.0000000000000000    0.0000000000000000   26.0879993439000017
   Ir   C    H    O 
    45     1     4     1
Selective dynamics
Direct
  0.9566999999999979  0.0239600000000024  0.0000000000000000   F   F   F
  0.2900300000000016  0.0239600000000024  0.1214399999999998   F   F   F
  0.6233592492605085  0.0245619313177178  0.2428653212344937   T   T   T
  0.9591704597802453  0.0230358737646439  0.3663412539309132   T   T   T
  0.6233599999999981  0.0239600000000024  0.0607200000000034   F   F   F
  0.9551708904573072  0.0239781190901127  0.1820449330576778   T   T   T
  0.2879183944451316  0.0234833105745393  0.3023405238726379   T   T   T
  0.6123500389276300  0.0245250837339438  0.4208276587221348   T   T   T
  0.2900300000000016  0.1906200000000027  0.0303600000000017   F   F   F
  0.6233599999999981  0.1906200000000027  0.1517899999999983   F   F   F
  0.9557175355693890  0.1907352894898835  0.2735306664636011   T   T   T
  0.2815883418728576  0.1908161804741856  0.3912434795388405   T   T   T
  0.9566999999999979  0.1906200000000027  0.0910799999999981   F   F   F
  0.2887406595547901  0.1907105480029773  0.2119871836610493   T   T   T
  0.6253172984254159  0.1908082873268900  0.3332389442301322   T   T   T
  0.9566999999999979  0.3572899999999990  0.0000000000000000   F   F   F
  0.2900300000000016  0.3572899999999990  0.1214399999999998   F   F   F
  0.6233557038081823  0.3568592187034515  0.2428562553113586   T   T   T
  0.9589100191880271  0.3583815393883829  0.3663865328840019   T   T   T
  0.6233599999999981  0.3572899999999990  0.0607200000000034   F   F   F
  0.9551471873191151  0.3573964675213817  0.1820492799999928   T   T   T
  0.2879493078500809  0.3579466140802848  0.3023260693087940   T   T   T
  0.6123247440002353  0.3569462953321919  0.4208533101867609   T   T   T
  0.2900300000000016  0.5239600000000024  0.0303600000000017   F   F   F
  0.6233599999999981  0.5239600000000024  0.1517899999999983   F   F   F
  0.9542144949009973  0.5246909798945798  0.2740687215483519   T   T   T
  0.2883735874556633  0.5233883164325663  0.3917676561194216   T   T   T
  0.9566999999999979  0.5239600000000024  0.0910799999999981   F   F   F
  0.2894586306721249  0.5240756588985749  0.2121168767930365   T   T   T
  0.6269608258176497  0.5240158625722008  0.3349131961003287   T   T   T
  0.9566999999999979  0.6906200000000027  0.0000000000000000   F   F   F
  0.2900300000000016  0.6906200000000027  0.1214399999999998   F   F   F
  0.6220404631869292  0.6907471670797403  0.2417283789724750   T   T   T
  0.9590912717115895  0.6908578363485912  0.3665795039091544   T   T   T
  0.6233599999999981  0.6906200000000027  0.0607200000000034   F   F   F
  0.9555687680230024  0.6906659376422923  0.1823451390517137   T   T   T
  0.2885128796892072  0.6907368871329821  0.3021675517861674   T   T   T
  0.6049691674934861  0.6909200317124974  0.4236160412220273   T   T   T
  0.2900300000000016  0.8572899999999990  0.0303600000000017   F   F   F
  0.6233599999999981  0.8572899999999990  0.1517899999999983   F   F   F
  0.9542112342934777  0.8567835540963271  0.2740470022326377   T   T   T
  0.2889976625666580  0.8578081766725001  0.3917888221246700   T   T   T
  0.9566999999999979  0.8572899999999990  0.0910799999999981   F   F   F
  0.2894823148684490  0.8573306142929216  0.2121064079828827   T   T   T
  0.6270822146917151  0.8575111035136804  0.3348919826255817   T   T   T
  0.6625920515029041  0.6885835568249253  0.5028338110591960   T   T   T
  0.5490270050920081  0.6138910932050500  0.5214821030761961   T   T   T
  0.8101715625026124  0.6365435229880798  0.5094680199867888   T   T   T
  0.6567251129230529  0.8119212557777301  0.5182741937490911   T   T   T
  0.7970761415892169  0.1911500552366084  0.4935299320104435   T   T   T
  0.6576816585029398  0.1910521348434713  0.4835508970621026   T   T   T
 
  0.00000000E+00  0.00000000E+00  0.00000000E+00
  0.00000000E+00  0.00000000E+00  0.00000000E+00
  0.00000000E+00  0.00000000E+00  0.00000000E+00
  0.00000000E+00  0.00000000E+00  0.00000000E+00
  0.00000000E+00  0.00000000E+00  0.00000000E+00
  0.00000000E+00  0.00000000E+00  0.00000000E+00
  0.00000000E+00  0.00000000E+00  0.00000000E+00
  0.00000000E+00  0.00000000E+00  0.00000000E+00
  0.00000000E+00  0.00000000E+00  0.00000000E+00
  0.00000000E+00  0.00000000E+00  0.00000000E+00
  0.00000000E+00  0.00000000E+00  0.00000000E+00
  0.00000000E+00  0.00000000E+00  0.00000000E+00
  0.00000000E+00  0.00000000E+00  0.00000000E+00
  0.00000000E+00  0.00000000E+00  0.00000000E+00
  0.00000000E+00  0.00000000E+00  0.00000000E+00
  0.00000000E+00  0.00000000E+00  0.00000000E+00
  0.00000000E+00  0.00000000E+00  0.00000000E+00
  0.00000000E+00  0.00000000E+00  0.00000000E+00
  0.00000000E+00  0.00000000E+00  0.00000000E+00
  0.00000000E+00  0.00000000E+00  0.00000000E+00
  0.00000000E+00  0.00000000E+00  0.00000000E+00
  0.00000000E+00  0.00000000E+00  0.00000000E+00
  0.00000000E+00  0.00000000E+00  0.00000000E+00
  0.00000000E+00  0.00000000E+00  0.00000000E+00
  0.00000000E+00  0.00000000E+00  0.00000000E+00
  0.00000000E+00  0.00000000E+00  0.00000000E+00
  0.00000000E+00  0.00000000E+00  0.00000000E+00
  0.00000000E+00  0.00000000E+00  0.00000000E+00
  0.00000000E+00  0.00000000E+00  0.00000000E+00
  0.00000000E+00  0.00000000E+00  0.00000000E+00
  0.00000000E+00  0.00000000E+00  0.00000000E+00
  0.00000000E+00  0.00000000E+00  0.00000000E+00
  0.00000000E+00  0.00000000E+00  0.00000000E+00
  0.00000000E+00  0.00000000E+00  0.00000000E+00
  0.00000000E+00  0.00000000E+00  0.00000000E+00
  0.00000000E+00  0.00000000E+00  0.00000000E+00
  0.00000000E+00  0.00000000E+00  0.00000000E+00
  0.00000000E+00  0.00000000E+00  0.00000000E+00
  0.00000000E+00  0.00000000E+00  0.00000000E+00
  0.00000000E+00  0.00000000E+00  0.00000000E+00
  0.00000000E+00  0.00000000E+00  0.00000000E+00
  0.00000000E+00  0.00000000E+00  0.00000000E+00
  0.00000000E+00  0.00000000E+00  0.00000000E+00
  0.00000000E+00  0.00000000E+00  0.00000000E+00
  0.00000000E+00  0.00000000E+00  0.00000000E+00
  0.00000000E+00  0.00000000E+00  0.00000000E+00
  0.00000000E+00  0.00000000E+00  0.00000000E+00
  0.00000000E+00  0.00000000E+00  0.00000000E+00
  0.00000000E+00  0.00000000E+00  0.00000000E+00
  0.00000000E+00  0.00000000E+00  0.00000000E+00
  0.00000000E+00  0.00000000E+00  0.00000000E+00
