Ir  C  H  O                             
   1.00000000000000     
     6.7203998566000003    0.0000000000000000    0.0000000000000000
     0.0000000000000000    8.2306995391999997    0.0000000000000000
     0.0000000000000000    0.0000000000000000   26.0879993439000017
   Ir   C    H    O 
    45     1     4     1
Selective dynamics
Direct
  0.9566999999999979  0.0239600000000024  0.0000000000000000   F   F   F
  0.2900300000000016  0.0239600000000024  0.1214399999999998   F   F   F
  0.6241119764369962  0.0229887676799692  0.2431512642628762   T   T   T
  0.9601378274128092  0.0218005246372026  0.3657523390363187   T   T   T
  0.6233599999999981  0.0239600000000024  0.0607200000000034   F   F   F
  0.9558564703594151  0.0240276036201736  0.1820074975044962   T   T   T
  0.2887255079918848  0.0234827488018715  0.3023538261623495   T   T   T
  0.6177989563727919  0.0164894475802151  0.4241132980468487   T   T   T
  0.2900300000000016  0.1906200000000027  0.0303600000000017   F   F   F
  0.6233599999999981  0.1906200000000027  0.1517899999999983   F   F   F
  0.9570016045060857  0.1907108337750552  0.2738526871058681   T   T   T
  0.2840667626161434  0.1907297253716526  0.3910397425073487   T   T   T
  0.9566999999999979  0.1906200000000027  0.0910799999999981   F   F   F
  0.2900901422002379  0.1906702982020061  0.2120573744432486   T   T   T
  0.6278380124561964  0.1907079390628782  0.3321976358437482   T   T   T
  0.9566999999999979  0.3572899999999990  0.0000000000000000   F   F   F
  0.2900300000000016  0.3572899999999990  0.1214399999999998   F   F   F
  0.6241006952337723  0.3583517373042601  0.2431572006842920   T   T   T
  0.9601626483779644  0.3596329744934597  0.3657578798154331   T   T   T
  0.6233599999999981  0.3572899999999990  0.0607200000000034   F   F   F
  0.9558382387513622  0.3572890842979038  0.1820096888499677   T   T   T
  0.2887341375336342  0.3579170952999344  0.3023497479490175   T   T   T
  0.6178045365074027  0.3650184289002941  0.4241115897094396   T   T   T
  0.2900300000000016  0.5239600000000024  0.0303600000000017   F   F   F
  0.6233599999999981  0.5239600000000024  0.1517899999999983   F   F   F
  0.9555923068884361  0.5247950573516494  0.2736159341901762   T   T   T
  0.2923413487760724  0.5215728272579944  0.3919024307779683   T   T   T
  0.9566999999999979  0.5239600000000024  0.0910799999999981   F   F   F
  0.2900951521825104  0.5240320080481017  0.2120025470445301   T   T   T
  0.6271940657210089  0.5215953320741613  0.3342170715270036   T   T   T
  0.9566999999999979  0.6906200000000027  0.0000000000000000   F   F   F
  0.2900300000000016  0.6906200000000027  0.1214399999999998   F   F   F
  0.6241555362936291  0.6907050872068404  0.2415687321684590   T   T   T
  0.9621838377899025  0.6907096157552306  0.3659600793567435   T   T   T
  0.6233599999999981  0.6906200000000027  0.0607200000000034   F   F   F
  0.9569315700967823  0.6906716745691838  0.1821830417270557   T   T   T
  0.2899693764148285  0.6907143419535904  0.3018936018391016   T   T   T
  0.6106838816383534  0.6907209924306920  0.4199114194356731   T   T   T
  0.2900300000000016  0.8572899999999990  0.0303600000000017   F   F   F
  0.6233599999999981  0.8572899999999990  0.1517899999999983   F   F   F
  0.9555809684134389  0.8566078634975663  0.2736135050791010   T   T   T
  0.2923818182023113  0.8598725901663444  0.3919063963709232   T   T   T
  0.9566999999999979  0.8572899999999990  0.0910799999999981   F   F   F
  0.2901266449016242  0.8573274293002933  0.2120006246442459   T   T   T
  0.6272039262150350  0.8598594728749167  0.3342210156421607   T   T   T
  0.6180205039851834  0.6849867757017174  0.5587818650740830   T   T   T
  0.4808300146046821  0.6903544866612905  0.5810708582603240   T   T   T
  0.7466664678511632  0.6910967318509393  0.5841861405917830   T   T   T
  0.6223951526170720  0.7880983288601515  0.5323952183545888   T   T   T
  0.6223907261222463  0.5709995856515862  0.5373844372888748   T   T   T
  0.6611446873571434  0.1907448357229929  0.4726852873179313   T   T   T
 
  0.00000000E+00  0.00000000E+00  0.00000000E+00
  0.00000000E+00  0.00000000E+00  0.00000000E+00
  0.00000000E+00  0.00000000E+00  0.00000000E+00
  0.00000000E+00  0.00000000E+00  0.00000000E+00
  0.00000000E+00  0.00000000E+00  0.00000000E+00
  0.00000000E+00  0.00000000E+00  0.00000000E+00
  0.00000000E+00  0.00000000E+00  0.00000000E+00
  0.00000000E+00  0.00000000E+00  0.00000000E+00
  0.00000000E+00  0.00000000E+00  0.00000000E+00
  0.00000000E+00  0.00000000E+00  0.00000000E+00
  0.00000000E+00  0.00000000E+00  0.00000000E+00
  0.00000000E+00  0.00000000E+00  0.00000000E+00
  0.00000000E+00  0.00000000E+00  0.00000000E+00
  0.00000000E+00  0.00000000E+00  0.00000000E+00
  0.00000000E+00  0.00000000E+00  0.00000000E+00
  0.00000000E+00  0.00000000E+00  0.00000000E+00
  0.00000000E+00  0.00000000E+00  0.00000000E+00
  0.00000000E+00  0.00000000E+00  0.00000000E+00
  0.00000000E+00  0.00000000E+00  0.00000000E+00
  0.00000000E+00  0.00000000E+00  0.00000000E+00
  0.00000000E+00  0.00000000E+00  0.00000000E+00
  0.00000000E+00  0.00000000E+00  0.00000000E+00
  0.00000000E+00  0.00000000E+00  0.00000000E+00
  0.00000000E+00  0.00000000E+00  0.00000000E+00
  0.00000000E+00  0.00000000E+00  0.00000000E+00
  0.00000000E+00  0.00000000E+00  0.00000000E+00
  0.00000000E+00  0.00000000E+00  0.00000000E+00
  0.00000000E+00  0.00000000E+00  0.00000000E+00
  0.00000000E+00  0.00000000E+00  0.00000000E+00
  0.00000000E+00  0.00000000E+00  0.00000000E+00
  0.00000000E+00  0.00000000E+00  0.00000000E+00
  0.00000000E+00  0.00000000E+00  0.00000000E+00
  0.00000000E+00  0.00000000E+00  0.00000000E+00
  0.00000000E+00  0.00000000E+00  0.00000000E+00
  0.00000000E+00  0.00000000E+00  0.00000000E+00
  0.00000000E+00  0.00000000E+00  0.00000000E+00
  0.00000000E+00  0.00000000E+00  0.00000000E+00
  0.00000000E+00  0.00000000E+00  0.00000000E+00
  0.00000000E+00  0.00000000E+00  0.00000000E+00
  0.00000000E+00  0.00000000E+00  0.00000000E+00
  0.00000000E+00  0.00000000E+00  0.00000000E+00
  0.00000000E+00  0.00000000E+00  0.00000000E+00
  0.00000000E+00  0.00000000E+00  0.00000000E+00
  0.00000000E+00  0.00000000E+00  0.00000000E+00
  0.00000000E+00  0.00000000E+00  0.00000000E+00
  0.00000000E+00  0.00000000E+00  0.00000000E+00
  0.00000000E+00  0.00000000E+00  0.00000000E+00
  0.00000000E+00  0.00000000E+00  0.00000000E+00
  0.00000000E+00  0.00000000E+00  0.00000000E+00
  0.00000000E+00  0.00000000E+00  0.00000000E+00
  0.00000000E+00  0.00000000E+00  0.00000000E+00
