Au Fe Au O 
 1.0000000000000000
    12.5100002288999992    0.0000000000000000    0.0000000000000000
     0.0000000000000000    8.8458995818999995    0.0000000000000000
     0.0000000000000000    0.0000000000000000   19.4230003356999994
 Au  Fe  Au  O  
  17   1  18   1
Selective dynamics
Cartesian
  0.0000000000000000  0.0000000000000000  1.4743999939999854   F   F   F
 -0.0000000311538775  0.0000003939268917  4.4748387569870482   T   T   T
  2.0845439280835305  1.4744181506093408  3.1059826595840891   T   T   T
  2.0850416710000439  1.4743460350000157  0.0000000000000000   F   F   F
  4.1699584439999997  0.0000000000000000  1.4743999939999854   F   F   F
  4.1700467251150739  0.0000006184235892  4.4699007321938335   T   T   T
  6.2549997043276191  1.4743304572037212  3.1079244363010496   T   T   T
  6.2550001140000440  1.4743460350000157  0.0000000000000000   F   F   F
  8.3400421580000383  0.0000000000000000  1.4743999939999854   F   F   F
  8.3399541683952467  0.0000006954539791  4.4699025106228616   T   T   T
 10.4254566605230607  1.4744179662250136  3.1059822301469651   T   T   T
 10.4249581860000067  1.4743460350000157  0.0000000000000000   F   F   F
  0.0000000000000000  2.9486037550000104  1.4743999939999854   F   F   F
 -0.0000000177842063  2.9486495959207328  4.4748160512933781   T   T   T
  2.0843318042922885  4.4229500605071577  3.1058567244613360   T   T   T
  2.0850416710000439  4.4229497910000317  0.0000000000000000   F   F   F
  4.1699584439999997  2.9486037550000104  1.4743999939999854   F   F   F
  4.1699782114182362  2.9485779555656717  4.4695517920782715   T   T   T
  6.2549991401376293  4.4229499818867204  3.1075518191969924   T   T   T
  6.2550001140000440  4.4229497910000317  0.0000000000000000   F   F   F
  8.3400421580000383  2.9486037550000104  1.4743999939999854   F   F   F
  8.3400226175040704  2.9485775367332940  4.4695536492144985   T   T   T
 10.4256692655395149  4.4229507103682604  3.1058564637069135   T   T   T
 10.4249581860000067  4.4229497910000317  0.0000000000000000   F   F   F
  0.0000000000000000  5.8972960899999904  1.4743999939999854   F   F   F
 -0.0000009839888723  5.8972497111864683  4.4748166456118579   T   T   T
  2.0845442223204396  7.3714817051081933  3.1059829014540195   T   T   T
  2.0850416710000439  7.3715532829999786  0.0000000000000000   F   F   F
  4.1699584439999997  5.8972960899999904  1.4743999939999854   F   F   F
  4.1699783392019301  5.8973211476752256  4.4695528896969012   T   T   T
  6.2550000081314305  7.3715691437495350  3.1079244108519588   T   T   T
  6.2550001140000440  7.3715532829999786  0.0000000000000000   F   F   F
  8.3400421580000383  5.8972960899999904  1.4743999939999854   F   F   F
  8.3400231914555434  5.8973214844285637  4.4695541107846095   T   T   T
 10.4254568972031443  7.3714804289530607  3.1059824754975689   T   T   T
 10.4249581860000067  7.3715532829999786  0.0000000000000000   F   F   F
  2.0850233469806030  0.0000005061752342  5.5117294124785303   T   T   T
