Cu Re Cu O 
 1.0000000000000000
     7.7216000556999997    0.0000000000000000    0.0000000000000000
     0.0000000000000000    7.7216000556999997    0.0000000000000000
     0.0000000000000000    0.0000000000000000   20.4599990845000015
 Cu  Re  Cu  O  
  17   1  18   1
Selective dynamics
Cartesian
  0.0000000000000000  0.0000000000000000  1.8199169329999718   F   F   F
 -0.0000024342665819 -0.0000063855510449  5.5237964830131041   T   T   T
  1.2869590400000099  1.2869590400000099  0.0000000000000000   F   F   F
  1.2827883209116326  1.2827817798620089  3.6976786563146256   T   T   T
  2.5738409879999913  0.0000000000000000  1.8199169329999718   F   F   F
  2.5873061601589993 -0.0000162838485412  5.5227547940048600   T   T   T
  3.8608000280000025  1.2869590400000099  0.0000000000000000   F   F   F
  3.8608053788008365  1.2783508173157110  3.6879573507493850   T   T   T
  5.1477592970000146  0.0000000000000000  1.8199169329999718   F   F   F
  5.1342920779916472  0.0000036521022825  5.5227770282335102   T   T   T
  6.4346407860000152  1.2869590400000099  0.0000000000000000   F   F   F
  6.4388030613182030  1.2827860535715905  3.6976722311590380   T   T   T
  0.0000000000000000  2.5738409879999913  1.8199169329999718   F   F   F
 -0.0000139825815955  2.5874226756294236  5.5232586161175243   T   T   T
  1.2869590400000099  3.8608000280000025  0.0000000000000000   F   F   F
  1.2783626268073907  3.8608043537035819  3.6879518492000529   T   T   T
  2.5738409879999913  2.5738409879999913  1.8199169329999718   F   F   F
  2.5822192251989833  2.5822181792867513  5.5103061493104724   T   T   T
  3.8608000280000025  3.8608000280000025  0.0000000000000000   F   F   F
  3.8607983523224352  3.8607959328589052  3.6818054134554981   T   T   T
  5.1477592970000146  2.5738409879999913  1.8199169329999718   F   F   F
  5.1393273503520973  2.5822796095156608  5.5103252177880684   T   T   T
  6.4346407860000152  3.8608000280000025  0.0000000000000000   F   F   F
  6.4432409704343927  3.8607964159191663  3.6879317676949146   T   T   T
  0.0000000000000000  5.1477592970000146  1.8199169329999718   F   F   F
  0.0000060731883108  5.1342901345610050  5.5227638530536884   T   T   T
  1.2869590400000099  6.4346407860000152  0.0000000000000000   F   F   F
  1.2827950749719295  6.4387973088051380  3.6976717563753287   T   T   T
  2.5738409879999913  5.1477592970000146  1.8199169329999718   F   F   F
  2.5822767894133101  5.1393299818898717  5.5103381759440540   T   T   T
  3.8608000280000025  6.4346407860000152  0.0000000000000000   F   F   F
  3.8607988042997015  6.4432408145289397  3.6879412963746265   T   T   T
  5.1477592970000146  5.1477592970000146  1.8199169329999718   F   F   F
  5.1393823493095558  5.1393806322938786  5.5103063292586185   T   T   T
  6.4346407860000152  6.4346407860000152  0.0000000000000000   F   F   F
  6.4388102506219536  6.4388072314416158  3.6976543393115966   T   T   T
  0.8607342694502709  1.7232114897883786  6.5149280323859333   T   T   T
