Ag Sc Ag O 
 1.0000000000000000
    12.4799995421999999    0.0000000000000000    0.0000000000000000
     0.0000000000000000    8.8247003554999992    0.0000000000000000
     0.0000000000000000    0.0000000000000000   19.4123001098999985
 Ag  Sc  Ag  O  
  16   1  19   1
Selective dynamics
Cartesian
 -0.0000000305198289  0.0000001451862788  4.4641536863159645   T   T   T
  2.0766682759113322  1.4707878977269935  3.0450440817794986   T   T   T
  2.0800414560000062  1.4708127609999764  0.0000000000000000   F   F   F
  0.0000000000000000  0.0000000000000000  1.4708699430000391   F   F   F
  4.1582637365861048 -0.0000001678555379  4.4605961955231797   T   T   T
  6.2399998649672135  1.4707882033181439  3.0453714926892035   T   T   T
  6.2399997709999733  1.4708127609999764  0.0000000000000000   F   F   F
  4.1599583149999688  0.0000000000000000  1.4708699430000391   F   F   F
  8.3217363261107185  0.0000003615062318  4.4605961076788390   T   T   T
 10.4033315899432317  1.4707878035702080  3.0450425963260308   T   T   T
 10.3999577140000223  1.4708127609999764  0.0000000000000000   F   F   F
  8.3200415989999890  0.0000000000000000  1.4708699430000391   F   F   F
 -0.0000008841159263  2.9415708449627775  4.4641448716328735   T   T   T
  2.0766685221266163  4.4123504540998564  3.0450154746185802   T   T   T
  2.0800414560000062  4.4123501779999978  0.0000000000000000   F   F   F
  0.0000000000000000  2.9415374170000210  1.4708699430000391   F   F   F
  4.1582679253831891  2.9415716293325831  4.4605875526004031   T   T   T
  6.2400000768192330  4.4123504714645190  3.0453421839542507   T   T   T
  6.2399997709999733  4.4123501779999978  0.0000000000000000   F   F   F
  4.1599583149999688  2.9415374170000210  1.4708699430000391   F   F   F
  8.3217330692964566  2.9415714655562812  4.4605865760764898   T   T   T
 10.4033310912411938  4.4123504889408025  3.0450140194215631   T   T   T
 10.3999577140000223  4.4123501779999978  0.0000000000000000   F   F   F
  8.3200415989999890  2.9415374170000210  1.4708699430000391   F   F   F
 -0.0000001418512778  5.8831295195606295  4.4641455135497656   T   T   T
  2.0766678837940260  7.3539125817415689  3.0450414749275376   T   T   T
  2.0800414560000062  7.3538873320000047  0.0000000000000000   F   F   F
  0.0000000000000000  5.8831632009999959  1.4708699430000391   F   F   F
  4.1582677908127064  5.8831292038361935  4.4605869184486631   T   T   T
  6.2400001574170005  7.3539123233323860  3.0453690402659506   T   T   T
  6.2399997709999733  7.3538873320000047  0.0000000000000000   F   F   F
  4.1599583149999688  5.8831632009999959  1.4708699430000391   F   F   F
  8.3217324648244642  5.8831286358968216  4.4605874715925786   T   T   T
 10.4033317115097628  7.3539126165390760  3.0450418706398552   T   T   T
 10.3999577140000223  7.3538873320000047  0.0000000000000000   F   F   F
  8.3200415989999890  5.8831632009999959  1.4708699430000391   F   F   F
  4.1582678580979557  4.4123504165843874  6.0048297888651634   T   T   T
