Ag Tc Ag O 
 1.0000000000000000
     8.8247003554999992    0.0000000000000000    0.0000000000000000
    -4.4123501777999996    7.6424146886999997    0.0000000000000000
     0.0000000000000000    0.0000000000000000   22.2052993773999994
 Ag  Tc  Ag  O  
  17   1  18   1
Selective dynamics
Cartesian
  0.0000000000000000  0.0000000000000000  0.0000000000000000   F   F   F
  0.0000000000000000  0.0000000000000000  7.2053978330000001   T   T   T
  1.4707687089999999  0.8491487100000000  4.8034502090000002   T   T   T
 -0.0000000000000000  1.6982974200000001  2.4017251040000001   F   F   F
  2.9415374170000002  0.0000000000000000  0.0000000000000000   F   F   F
  2.9415374170000002  0.0000000000000000  7.2053978330000001   T   T   T
  4.4123942300000003  0.8491487100000000  4.8034502090000002   T   T   T
  2.9415374170000002  1.6982974200000001  2.4017251040000001   F   F   F
  5.8831632010000003  0.0000000000000000  0.0000000000000000   F   F   F
  5.8831632010000003  0.0000000000000000  7.2053978330000001   T   T   T
  7.3539319100000000  0.8491487100000000  4.8034502090000002   T   T   T
  5.8831629379999999  1.6982974200000001  2.4017251040000001   F   F   F
 -1.4707687089999997  2.5474461300000000  0.0000000000000000   F   F   F
 -1.4707687089999997  2.5474461300000000  7.2053978330000001   T   T   T
  0.0000000000000002  3.3965948390000000  4.8034502090000002   T   T   T
 -1.4708127609999997  4.2458198490000001  2.4017251040000001   F   F   F
  1.4707687089999999  2.5474461300000000  0.0000000000000000   F   F   F
  1.4707687089999999  2.5474461300000000  7.2053978330000001   T   T   T
  2.9416255210000006  3.3965948390000000  4.8034502090000002   T   T   T
  1.4707246570000003  4.2458198490000001  2.4017251040000001   F   F   F
  4.4123944930000008  2.5474461300000000  0.0000000000000000   F   F   F
  4.4123944930000008  2.5474461300000000  7.2053978330000001   T   T   T
  5.8831632010000003  3.3965948390000000  4.8034502090000002   T   T   T
  4.4123501779999996  4.2458198490000001  2.4017251040000001   F   F   F
 -2.9415816010000002  5.0949687870000000  0.0000000000000000   F   F   F
 -2.9415816010000002  5.0949687870000000  7.2053978330000001   T   T   T
 -1.4708127609999999  5.9441172690000004  4.8034502090000002   T   T   T
 -2.9415816010000002  6.7932662070000003  2.4017251040000001   F   F   F
 -0.0000441829999997  5.0949687870000000  0.0000000000000000   F   F   F
 -0.0000441829999997  5.0949687870000000  7.2053978330000001   T   T   T
  1.4708127610000001  5.9441172690000004  4.8034502090000002   T   T   T
 -0.0000441829999994  6.7932662070000003  2.4017251040000001   F   F   F
  2.9415816010000002  5.0949687870000000  0.0000000000000000   F   F   F
  2.9415816010000002  5.0949687870000000  7.2053978330000001   T   T   T
  4.4123504410000001  5.9441172690000004  4.8034502090000002   T   T   T
  2.9415813380000007  6.7932662070000003  2.4017251040000001   F   F   F
  2.9415816009999984  3.3966203490000018  8.4972543774004237   T   T   T
