Cu Zn Cu O 
 1.0000000000000000
     7.7216000556999997    0.0000000000000000    0.0000000000000000
    -3.8608000277999999    6.6871018061000003    0.0000000000000000
     0.0000000000000000    0.0000000000000000   21.3047008513999998
 Cu  Zn  Cu  O  
  17   1  18   1
Selective dynamics
Cartesian
  0.0000000000000000  0.0000000000000000  0.0000000000000000   F   F   F
 -0.0000882498568090  0.0000491665166175  6.3396399878900693   T   T   T
  1.2863325676730180  0.7428971979038920  4.2200061592584381   T   T   T
  0.0000000000000006  1.4860077869999968  2.1014957410000474   F   F   F
  2.5738409879999913  0.0000000000000000  0.0000000000000000   F   F   F
  2.5711645280127589 -0.0012842757456751  6.3369280578969587   T   T   T
  3.8607835731872475  0.7389236891206092  4.2275445152137712   T   T   T
  2.5738409879999931  1.4860077869999968  2.1014957410000474   F   F   F
  5.1477592970000146  0.0000000000000000  0.0000000000000000   F   F   F
  5.1504013872501320 -0.0000139807169265  6.3372663857647744   T   T   T
  6.4352137544082995  0.7426960731310533  4.2195288358701761   T   T   T
  5.1477590669999822  1.4860077869999968  2.1014957410000474   F   F   F
 -1.2869204940000358  2.2290116810000162  0.0000000000000000   F   F   F
 -1.2855974424185550  2.2267398959347586  6.3372630086333457   T   T   T
  0.0000171753987331  2.9705701973589593  4.2236375196653420   T   T   T
 -1.2869590400000210  3.7150862309999932  2.1014957410000474   F   F   F
  1.2869204940000112  2.2290116810000162  0.0000000000000000   F   F   F
  1.2850923445769653  2.2276912652990859  6.3374525843693137   T   T   T
  2.5707437704951266  2.9738523343594983  4.2274610978533138   T   T   T
  1.2868819489999999  3.7150862309999932  2.1014957410000474   F   F   F
  3.8608388029999792  2.2290116810000162  0.0000000000000000   F   F   F
  3.8594271669524542  2.2298128452716370  6.3367075206442323   T   T   T
  5.1512649502918624  2.9741042946570557  4.2275447907661521   T   T   T
  3.8608000279999914  3.7150862309999932  2.1014957410000474   F   F   F
  5.1477204066999800  4.4580903240000076  0.0000000000000000   F   F   F
 -2.5741096890679307  4.4610591211626716  6.3369301394295325   T   T   T
 -1.2882422601788490  5.2018307691887937  4.2229770351961644   T   T   T
 -2.5738796490000189  5.9440981119999980  2.1014957410000474   F   F   F
 -0.0000386599999983  4.4580903240000076  0.0000000000000000   F   F   F
  0.0010541639191819  4.4574650801118443  6.3357380651365514   T   T   T
  1.2882235356231919  5.2018001454374101  4.2236359584416521   T   T   T
 -0.0000386599999973  5.9440981119999980  2.1014957410000474   F   F   F
  2.5738796489999709  4.4580903240000076  0.0000000000000000   F   F   F
  2.5741026065648849  4.4603377236426622  6.3374573329666788   T   T   T
  3.8605992349500271  5.2016538400956192  4.2200088440098131   T   T   T
  2.5738794189999941  5.9440981119999980  2.1014957410000474   F   F   F
  3.2152958474826119  1.1142642847629813  7.3676950004043960   T   T   T
