Rh C  H  O                              
   1.00000000000000     
     6.6683998108000004    0.0000000000000000    0.0000000000000000
     0.0000000000000000    8.1670999526999992    0.0000000000000000
     0.0000000000000000    0.0000000000000000   26.0023002625000004
   Rh   C    H    O 
    45     1     4     1
Selective dynamics
Direct
  0.9534900000000022  0.0357100000000017  0.0000000000000000   F   F   F
  0.2868199999999987  0.0357100000000017  0.1208900000000028   F   F   F
  0.6197820610452750  0.0359593370101991  0.2421699471919850   T   T   T
  0.9559343727085349  0.0349431535123585  0.3655906823270368   T   T   T
  0.6201599999999985  0.0357100000000017  0.0604500000000030   F   F   F
  0.9528180442454318  0.0355601397739703  0.1817762823732345   T   T   T
  0.2847851925290453  0.0355728683537337  0.3027359111986731   T   T   T
  0.6191534061999971  0.0336935212463332  0.4223701132325638   T   T   T
  0.2868199999999987  0.2023799999999980  0.0302199999999999   F   F   F
  0.6201599999999985  0.2023799999999980  0.1511199999999988   F   F   F
  0.9526558637889367  0.2023738641454813  0.2733013205228387   T   T   T
  0.2822459165831749  0.2025437727264278  0.3921237250310121   T   T   T
  0.9534900000000022  0.2023799999999980  0.0906700000000029   F   F   F
  0.2857517651693722  0.2023694660547821  0.2118193808418798   T   T   T
  0.6220987395091381  0.2026405255215480  0.3326948658472455   T   T   T
  0.9534900000000022  0.3690500000000014  0.0000000000000000   F   F   F
  0.2868199999999987  0.3690500000000014  0.1208900000000028   F   F   F
  0.6197398011227905  0.3688314130978156  0.2421595172932167   T   T   T
  0.9555714814736311  0.3701306762264177  0.3655737627812540   T   T   T
  0.6201599999999985  0.3690500000000014  0.0604500000000030   F   F   F
  0.9528111284921968  0.3692337637723043  0.1817827827702900   T   T   T
  0.2848539291227777  0.3694267559185996  0.3027176944298416   T   T   T
  0.6183976881784993  0.3720945781294345  0.4223430070848593   T   T   T
  0.2868199999999987  0.5357100000000017  0.0302199999999999   F   F   F
  0.6201599999999985  0.5357100000000017  0.1511199999999988   F   F   F
  0.9511735963603301  0.5366781056288609  0.2736477072304056   T   T   T
  0.2863126543462697  0.5350970857623992  0.3925338630513785   T   T   T
  0.9534900000000022  0.5357100000000017  0.0906700000000029   F   F   F
  0.2860804307612149  0.5357901832217902  0.2119844671560322   T   T   T
  0.6229207010741326  0.5351568106028253  0.3338954707765745   T   T   T
  0.9534900000000022  0.7023799999999980  0.0000000000000000   F   F   F
  0.2868199999999987  0.7023799999999980  0.1208900000000028   F   F   F
  0.6187960922195390  0.7023984835633500  0.2410306154855997   T   T   T
  0.9552051785507036  0.7024942331263622  0.3666623464730346   T   T   T
  0.6201599999999985  0.7023799999999980  0.0604500000000030   F   F   F
  0.9534126416482547  0.7023134321285216  0.1819254201228284   T   T   T
  0.2863043918975550  0.7025164619526965  0.3026169409793696   T   T   T
  0.6083786590127529  0.7028056996939143  0.4234938331594973   T   T   T
  0.2868199999999987  0.8690500000000014  0.0302199999999999   F   F   F
  0.6201599999999985  0.8690500000000014  0.1511199999999988   F   F   F
  0.9511701647000037  0.8681932877231084  0.2736282231126813   T   T   T
  0.2868403864492691  0.8699267503621325  0.3926069702219281   T   T   T
  0.9534900000000022  0.8690500000000014  0.0906700000000029   F   F   F
  0.2860443461097858  0.8690975081017642  0.2119698970354910   T   T   T
  0.6230452873899845  0.8703651691187068  0.3339105235236310   T   T   T
  0.6424574706266987  0.7018113955061986  0.5030478690881082   T   T   T
  0.5190140324698558  0.6293823216554740  0.5187927600084357   T   T   T
  0.7875752336331635  0.6463894774063202  0.5119103206825507   T   T   T
  0.6355543114691881  0.8277891868212640  0.5171170312964035   T   T   T
  0.8093985412087770  0.2049992997362979  0.4926530928498127   T   T   T
  0.6689126178088690  0.2037588656768680  0.4827005681943136   T   T   T
 
  0.00000000E+00  0.00000000E+00  0.00000000E+00
  0.00000000E+00  0.00000000E+00  0.00000000E+00
  0.00000000E+00  0.00000000E+00  0.00000000E+00
  0.00000000E+00  0.00000000E+00  0.00000000E+00
  0.00000000E+00  0.00000000E+00  0.00000000E+00
  0.00000000E+00  0.00000000E+00  0.00000000E+00
  0.00000000E+00  0.00000000E+00  0.00000000E+00
  0.00000000E+00  0.00000000E+00  0.00000000E+00
  0.00000000E+00  0.00000000E+00  0.00000000E+00
  0.00000000E+00  0.00000000E+00  0.00000000E+00
  0.00000000E+00  0.00000000E+00  0.00000000E+00
  0.00000000E+00  0.00000000E+00  0.00000000E+00
  0.00000000E+00  0.00000000E+00  0.00000000E+00
  0.00000000E+00  0.00000000E+00  0.00000000E+00
  0.00000000E+00  0.00000000E+00  0.00000000E+00
  0.00000000E+00  0.00000000E+00  0.00000000E+00
  0.00000000E+00  0.00000000E+00  0.00000000E+00
  0.00000000E+00  0.00000000E+00  0.00000000E+00
  0.00000000E+00  0.00000000E+00  0.00000000E+00
  0.00000000E+00  0.00000000E+00  0.00000000E+00
  0.00000000E+00  0.00000000E+00  0.00000000E+00
  0.00000000E+00  0.00000000E+00  0.00000000E+00
  0.00000000E+00  0.00000000E+00  0.00000000E+00
  0.00000000E+00  0.00000000E+00  0.00000000E+00
  0.00000000E+00  0.00000000E+00  0.00000000E+00
  0.00000000E+00  0.00000000E+00  0.00000000E+00
  0.00000000E+00  0.00000000E+00  0.00000000E+00
  0.00000000E+00  0.00000000E+00  0.00000000E+00
  0.00000000E+00  0.00000000E+00  0.00000000E+00
  0.00000000E+00  0.00000000E+00  0.00000000E+00
  0.00000000E+00  0.00000000E+00  0.00000000E+00
  0.00000000E+00  0.00000000E+00  0.00000000E+00
  0.00000000E+00  0.00000000E+00  0.00000000E+00
  0.00000000E+00  0.00000000E+00  0.00000000E+00
  0.00000000E+00  0.00000000E+00  0.00000000E+00
  0.00000000E+00  0.00000000E+00  0.00000000E+00
  0.00000000E+00  0.00000000E+00  0.00000000E+00
  0.00000000E+00  0.00000000E+00  0.00000000E+00
  0.00000000E+00  0.00000000E+00  0.00000000E+00
  0.00000000E+00  0.00000000E+00  0.00000000E+00
  0.00000000E+00  0.00000000E+00  0.00000000E+00
  0.00000000E+00  0.00000000E+00  0.00000000E+00
  0.00000000E+00  0.00000000E+00  0.00000000E+00
  0.00000000E+00  0.00000000E+00  0.00000000E+00
  0.00000000E+00  0.00000000E+00  0.00000000E+00
  0.00000000E+00  0.00000000E+00  0.00000000E+00
  0.00000000E+00  0.00000000E+00  0.00000000E+00
  0.00000000E+00  0.00000000E+00  0.00000000E+00
  0.00000000E+00  0.00000000E+00  0.00000000E+00
  0.00000000E+00  0.00000000E+00  0.00000000E+00
  0.00000000E+00  0.00000000E+00  0.00000000E+00
