Rh   C    H    O                        
   1.00000000000000     
     6.6683998108000004    0.0000000000000000    0.0000000000000000
     0.0000000000000000    8.1670999526999992    0.0000000000000000
     0.0000000000000000    0.0000000000000000   26.0023002625000004
   Rh   C    H    O 
    45     1     4     1
Selective dynamics
Direct
  0.9534900000000022  0.0357100000000017  0.0000000000000000   F   F   F
  0.2868199999999987  0.0357100000000017  0.1208900000000028   F   F   F
  0.6201594684476396  0.0349506329631393  0.2409286357357188   T   T   T
  0.9594989924496383  0.0320811903846007  0.3654642729216472   T   T   T
  0.6201599999999985  0.0357100000000017  0.0604500000000030   F   F   F
  0.9537358130895869  0.0353186518913377  0.1817599557284401   T   T   T
  0.2876488970189334  0.0337096769197995  0.3022502539476819   T   T   T
  0.6179581153119720  0.0286038849911030  0.4205422875405456   T   T   T
  0.2868199999999987  0.2023799999999980  0.0302199999999999   F   F   F
  0.6201599999999985  0.2023799999999980  0.1511199999999988   F   F   F
  0.9525076713806711  0.2003726082691772  0.2735589152170269   T   T   T
  0.2889373458023010  0.1994235881933569  0.3922292748084870   T   T   T
  0.9534900000000022  0.2023799999999980  0.0906700000000029   F   F   F
  0.2865466637675720  0.2018021196610481  0.2119641815938115   T   T   T
  0.6244076227614062  0.1991479764783647  0.3331504159269815   T   T   T
  0.9534900000000022  0.3690500000000014  0.0000000000000000   F   F   F
  0.2868199999999987  0.3690500000000014  0.1208900000000028   F   F   F
  0.6202212220575962  0.3677318347068476  0.2422952181718621   T   T   T
  0.9546573135378678  0.3657564286406549  0.3659401929434089   T   T   T
  0.6201599999999985  0.3690500000000014  0.0604500000000030   F   F   F
  0.9527952556271888  0.3687956423729760  0.1819892050380294   T   T   T
  0.2852976039127297  0.3672011836940756  0.3029569981016418   T   T   T
  0.6147279392130240  0.3611252799833687  0.4233663287370094   T   T   T
  0.2868199999999987  0.5357100000000017  0.0302199999999999   F   F   F
  0.6201599999999985  0.5357100000000017  0.1511199999999988   F   F   F
  0.9517004007652794  0.5344312550334935  0.2738756441830045   T   T   T
  0.2863161360098699  0.5325872736294622  0.3927200780181812   T   T   T
  0.9534900000000022  0.5357100000000017  0.0906700000000029   F   F   F
  0.2866379343310890  0.5345363064539791  0.2120115478641181   T   T   T
  0.6229470581259675  0.5336853009968502  0.3345522792487810   T   T   T
  0.9534900000000022  0.7023799999999980  0.0000000000000000   F   F   F
  0.2868199999999987  0.7023799999999980  0.1208900000000028   F   F   F
  0.6202266286601152  0.7014335324353779  0.2422752881512051   T   T   T
  0.9576771336425509  0.7003195548604919  0.3659770028209689   T   T   T
  0.6201599999999985  0.7023799999999980  0.0604500000000030   F   F   F
  0.9529414678415118  0.7016494431987740  0.1820155002886619   T   T   T
  0.2863398612973660  0.6998124002100780  0.3025304103641795   T   T   T
  0.6182867350312546  0.7025887065270365  0.4237928990122733   T   T   T
  0.2868199999999987  0.8690500000000014  0.0302199999999999   F   F   F
  0.6201599999999985  0.8690500000000014  0.1511199999999988   F   F   F
  0.9524017800025089  0.8676917421158846  0.2734551007943895   T   T   T
  0.2861701437246937  0.8658908148259945  0.3923008339719168   T   T   T
  0.9534900000000022  0.8690500000000014  0.0906700000000029   F   F   F
  0.2861699836149650  0.8679429312346969  0.2118568019021667   T   T   T
  0.6225895294471698  0.8646533911583807  0.3334902204794686   T   T   T
  0.6372896208408171  0.6958275606316017  0.5129156094944135   T   T   T
  0.5070263152657637  0.6699300569041378  0.5370276746755319   T   T   T
  0.7770196485970612  0.6962012450042255  0.5348512353624516   T   T   T
  0.6177334394511371  0.8224797459462048  0.4981121296825241   T   T   T
  0.6606529520386759  0.5419529857780925  0.4954418235700564   T   T   T
  0.6803663435097790  0.3878949938043295  0.4915673648342544   T   T   T
 
  0.00000000E+00  0.00000000E+00  0.00000000E+00
  0.00000000E+00  0.00000000E+00  0.00000000E+00
  0.00000000E+00  0.00000000E+00  0.00000000E+00
  0.00000000E+00  0.00000000E+00  0.00000000E+00
  0.00000000E+00  0.00000000E+00  0.00000000E+00
  0.00000000E+00  0.00000000E+00  0.00000000E+00
  0.00000000E+00  0.00000000E+00  0.00000000E+00
  0.00000000E+00  0.00000000E+00  0.00000000E+00
  0.00000000E+00  0.00000000E+00  0.00000000E+00
  0.00000000E+00  0.00000000E+00  0.00000000E+00
  0.00000000E+00  0.00000000E+00  0.00000000E+00
  0.00000000E+00  0.00000000E+00  0.00000000E+00
  0.00000000E+00  0.00000000E+00  0.00000000E+00
  0.00000000E+00  0.00000000E+00  0.00000000E+00
  0.00000000E+00  0.00000000E+00  0.00000000E+00
  0.00000000E+00  0.00000000E+00  0.00000000E+00
  0.00000000E+00  0.00000000E+00  0.00000000E+00
  0.00000000E+00  0.00000000E+00  0.00000000E+00
  0.00000000E+00  0.00000000E+00  0.00000000E+00
  0.00000000E+00  0.00000000E+00  0.00000000E+00
  0.00000000E+00  0.00000000E+00  0.00000000E+00
  0.00000000E+00  0.00000000E+00  0.00000000E+00
  0.00000000E+00  0.00000000E+00  0.00000000E+00
  0.00000000E+00  0.00000000E+00  0.00000000E+00
  0.00000000E+00  0.00000000E+00  0.00000000E+00
  0.00000000E+00  0.00000000E+00  0.00000000E+00
  0.00000000E+00  0.00000000E+00  0.00000000E+00
  0.00000000E+00  0.00000000E+00  0.00000000E+00
  0.00000000E+00  0.00000000E+00  0.00000000E+00
  0.00000000E+00  0.00000000E+00  0.00000000E+00
  0.00000000E+00  0.00000000E+00  0.00000000E+00
  0.00000000E+00  0.00000000E+00  0.00000000E+00
  0.00000000E+00  0.00000000E+00  0.00000000E+00
  0.00000000E+00  0.00000000E+00  0.00000000E+00
  0.00000000E+00  0.00000000E+00  0.00000000E+00
  0.00000000E+00  0.00000000E+00  0.00000000E+00
  0.00000000E+00  0.00000000E+00  0.00000000E+00
  0.00000000E+00  0.00000000E+00  0.00000000E+00
  0.00000000E+00  0.00000000E+00  0.00000000E+00
  0.00000000E+00  0.00000000E+00  0.00000000E+00
  0.00000000E+00  0.00000000E+00  0.00000000E+00
  0.00000000E+00  0.00000000E+00  0.00000000E+00
  0.00000000E+00  0.00000000E+00  0.00000000E+00
  0.00000000E+00  0.00000000E+00  0.00000000E+00
  0.00000000E+00  0.00000000E+00  0.00000000E+00
  0.00000000E+00  0.00000000E+00  0.00000000E+00
  0.00000000E+00  0.00000000E+00  0.00000000E+00
  0.00000000E+00  0.00000000E+00  0.00000000E+00
  0.00000000E+00  0.00000000E+00  0.00000000E+00
  0.00000000E+00  0.00000000E+00  0.00000000E+00
  0.00000000E+00  0.00000000E+00  0.00000000E+00
