Au Hf Au O  C  H                        
   1.00000000000000     
     8.8458995818999995    0.0000000000000000    0.0000000000000000
    -4.4229497909999997    7.6607737573000003    0.0000000000000000
     0.0000000000000000    0.0000000000000000   22.2227001189999989
   Au   Hf   Au   O    C    H 
    17     1    18     1     1     4
Selective dynamics
Direct
     0.0000000000000000    0.0000000000000000    0.0000000000000000   F   F   F
     0.0014739277983314    0.9974320510078587    0.3306096202518378   T   T   T
     0.2236033622599747    0.1137890862251116    0.2193398846480834   T   T   T
     0.1111100036335770    0.2222200072646459    0.1083399993748557   F   F   F
     0.3333300181287697    0.0000000000000000    0.0000000000000000   F   F   F
     0.3294213031519442    0.9974639545618726    0.3306086627148638   T   T   T
     0.5550233574193596    0.1076059576470313    0.2183996442454406   T   T   T
     0.4444399948572268    0.2222200072646459    0.1083399993748557   F   F   F
     0.6666700087876549    0.0000000000000000    0.0000000000000000   F   F   F
     0.6720392820492043    0.0106852443361754    0.3311599346558420   T   T   T
     0.8859970229961915    0.1075942067705530    0.2183937175209712   T   T   T
     0.7777800124212320    0.2222200072646459    0.1083399993748557   F   F   F
     0.9999999925351943    0.3333300031953925    0.0000000000000000   F   F   F
     0.0015230112433649    0.3243958046287588    0.3320563725647127   T   T   T
     0.2233526275419861    0.4416319733062202    0.2206659346251439   T   T   T
     0.1111100262929554    0.5555600161073073    0.1083399993748557   F   F   F
     0.3333300106639641    0.3333300031953925    0.0000000000000000   F   F   F
     0.3263730659315242    0.3193071301839513    0.3447750801923179   T   T   T
     0.5516758270108145    0.4416555093465034    0.2206786016294854   T   T   T
     0.4444400175166052    0.5555600161073073    0.1083399993748557   F   F   F
     0.6666700147754128    0.3333300031953925    0.0000000000000000   F   F   F
     0.6563442814950806    0.3244037705985887    0.3320579787239234   T   T   T
     0.8878139223681119    0.4421935200368165    0.2177949297462619   T   T   T
     0.7777800080624431    0.5555600161073073    0.1083399993748557   F   F   F
     0.0000000093958050    0.6666700275717332    0.0000000000000000   F   F   F
     0.9961758110437731    0.6589471283532772    0.3294931405451003   T   T   T
     0.2212256109975264    0.7751099929202117    0.2184401881418538   T   T   T
     0.1111100207962252    0.8888900503700583    0.1083399993748557   F   F   F
     0.3333300276376221    0.6666700275717332    0.0000000000000000   F   F   F
     0.3183616900211043    0.6439076618469544    0.3320418652742290   T   T   T
     0.5549086979711588    0.7763881537626568    0.2222326509925118   T   T   T
     0.4444400120198750    0.8888900503700583    0.1083399993748557   F   F   F
     0.6666700181834599    0.6666700275717332    0.0000000000000000   F   F   F
     0.6590146579721932    0.6439655657531201    0.3320578410689382   T   T   T
     0.8872979220940821    0.7750857713156770    0.2184419200562637   T   T   T
     0.7777800026787602    0.8888900503700583    0.1083399993748557   F   F   F
     0.5568331268145592    0.7802368161624860    0.4048478320266901   T   T   T
     0.3195395800996215    0.3056474981090480    0.4422514132009233   T   T   T
     0.2513450930108417    0.1692560719383970    0.4573865126492879   T   T   T
     0.4524391645694038    0.3700029664901756    0.4606910989720089   T   T   T
     0.2507838111870587    0.3699703799542253    0.4607087000125187   T   T   T
     0.5588622384542279    0.7841832619914121    0.4485935400850710   T   T   T
 
  0.00000000E+00  0.00000000E+00  0.00000000E+00
  0.00000000E+00  0.00000000E+00  0.00000000E+00
  0.00000000E+00  0.00000000E+00  0.00000000E+00
  0.00000000E+00  0.00000000E+00  0.00000000E+00
  0.00000000E+00  0.00000000E+00  0.00000000E+00
  0.00000000E+00  0.00000000E+00  0.00000000E+00
  0.00000000E+00  0.00000000E+00  0.00000000E+00
  0.00000000E+00  0.00000000E+00  0.00000000E+00
  0.00000000E+00  0.00000000E+00  0.00000000E+00
  0.00000000E+00  0.00000000E+00  0.00000000E+00
  0.00000000E+00  0.00000000E+00  0.00000000E+00
  0.00000000E+00  0.00000000E+00  0.00000000E+00
  0.00000000E+00  0.00000000E+00  0.00000000E+00
  0.00000000E+00  0.00000000E+00  0.00000000E+00
  0.00000000E+00  0.00000000E+00  0.00000000E+00
  0.00000000E+00  0.00000000E+00  0.00000000E+00
  0.00000000E+00  0.00000000E+00  0.00000000E+00
  0.00000000E+00  0.00000000E+00  0.00000000E+00
  0.00000000E+00  0.00000000E+00  0.00000000E+00
  0.00000000E+00  0.00000000E+00  0.00000000E+00
  0.00000000E+00  0.00000000E+00  0.00000000E+00
  0.00000000E+00  0.00000000E+00  0.00000000E+00
  0.00000000E+00  0.00000000E+00  0.00000000E+00
  0.00000000E+00  0.00000000E+00  0.00000000E+00
  0.00000000E+00  0.00000000E+00  0.00000000E+00
  0.00000000E+00  0.00000000E+00  0.00000000E+00
  0.00000000E+00  0.00000000E+00  0.00000000E+00
  0.00000000E+00  0.00000000E+00  0.00000000E+00
  0.00000000E+00  0.00000000E+00  0.00000000E+00
  0.00000000E+00  0.00000000E+00  0.00000000E+00
  0.00000000E+00  0.00000000E+00  0.00000000E+00
  0.00000000E+00  0.00000000E+00  0.00000000E+00
  0.00000000E+00  0.00000000E+00  0.00000000E+00
  0.00000000E+00  0.00000000E+00  0.00000000E+00
  0.00000000E+00  0.00000000E+00  0.00000000E+00
  0.00000000E+00  0.00000000E+00  0.00000000E+00
  0.00000000E+00  0.00000000E+00  0.00000000E+00
  0.00000000E+00  0.00000000E+00  0.00000000E+00
  0.00000000E+00  0.00000000E+00  0.00000000E+00
  0.00000000E+00  0.00000000E+00  0.00000000E+00
  0.00000000E+00  0.00000000E+00  0.00000000E+00
  0.00000000E+00  0.00000000E+00  0.00000000E+00
