Ag In Ag O                              
   1.00000000000000     
    12.4799995421999999    0.0000000000000000    0.0000000000000000
     0.0000000000000000    8.8247003554999992    0.0000000000000000
     0.0000000000000000    0.0000000000000000   19.4123001098999985
   Ag   In   Ag   O 
    16     1    19     1
Selective dynamics
Direct
     0.9988623715975703    0.9977909573670144    0.2219945713691642   T   T   T
     0.1688890787213597    0.1608629368774695    0.1526580191251048   T   T   T
     0.1666699945754431    0.1666699946455736    0.0000000000000000   F   F   F
     0.0000000000000000    0.0000000000000000    0.0757699981286564   F   F   F
     0.3376121872628000    0.9979821649920054    0.2247728827995875   T   T   T
     0.4977087830944146    0.1682684355317101    0.1548998279291630   T   T   T
     0.4999999999919851    0.1666699946455736    0.0000000000000000   F   F   F
     0.3333300054165420    0.0000000000000000    0.0757699981286564   F   F   F
     0.6672547349580933    0.0008380560825088    0.2221749659828275   T   T   T
     0.8345010903180958    0.1669247826884851    0.1536767452551671   T   T   T
     0.8333299756008401    0.1666699946455736    0.0000000000000000   F   F   F
     0.6666700243751222    0.0000000000000000    0.0757699981286564   F   F   F
     0.9951564292879325    0.3333286690609584    0.2249519571369893   T   T   T
     0.1688889558708125    0.5058138841130796    0.1526622434470285   T   T   T
     0.1666699945754431    0.5000000000283293    0.0000000000000000   F   F   F
     0.0000000000000000    0.3333300053827557    0.0757699981286564   F   F   F
     0.3401091693558324    0.3333329580024318    0.2521261781555165   T   T   T
     0.4976919085556266    0.4984000459696871    0.1549069982638853   T   T   T
     0.4999999999919851    0.5000000000283293    0.0000000000000000   F   F   F
     0.3333300054165420    0.3333300053827557    0.0757699981286564   F   F   F
     0.6692727576814378    0.3333528976671119    0.2228136128855380   T   T   T
     0.8344954840354284    0.4997456882989432    0.1536635237817116   T   T   T
     0.8333299756008401    0.5000000000283293    0.0000000000000000   F   F   F
     0.6666700243751222    0.3333300053827557    0.0757699981286564   F   F   F
     0.9988724996852631    0.6688652629744529    0.2220023465418832   T   T   T
     0.1685629729406722    0.8333378332347822    0.1540084568592693   T   T   T
     0.1666699945754431    0.8333299756083719    0.0000000000000000   F   F   F
     0.0000000000000000    0.6666700243632988    0.0757699981286564   F   F   F
     0.3376089837384360    0.6686849601843126    0.2247834407067809   T   T   T
     0.5014610257320845    0.8333302230503720    0.1538882087197110   T   T   T
     0.4999999999919851    0.8333299756083719    0.0000000000000000   F   F   F
     0.3333300054165420    0.6666700243632988    0.0757699981286564   F   F   F
     0.6672640404006662    0.6658142556823360    0.2221724145782452   T   T   T
     0.8324382456772159    0.8333345627523122    0.1536409784444334   T   T   T
     0.8333299756008401    0.8333299756083719    0.0000000000000000   F   F   F
     0.6666700243751222    0.6666700243632988    0.0757699981286564   F   F   F
     0.1720503098173597    0.3333329674879566    0.2477270487676245   T   T   T
 
  0.00000000E+00  0.00000000E+00  0.00000000E+00
  0.00000000E+00  0.00000000E+00  0.00000000E+00
  0.00000000E+00  0.00000000E+00  0.00000000E+00
  0.00000000E+00  0.00000000E+00  0.00000000E+00
  0.00000000E+00  0.00000000E+00  0.00000000E+00
  0.00000000E+00  0.00000000E+00  0.00000000E+00
  0.00000000E+00  0.00000000E+00  0.00000000E+00
  0.00000000E+00  0.00000000E+00  0.00000000E+00
  0.00000000E+00  0.00000000E+00  0.00000000E+00
  0.00000000E+00  0.00000000E+00  0.00000000E+00
  0.00000000E+00  0.00000000E+00  0.00000000E+00
  0.00000000E+00  0.00000000E+00  0.00000000E+00
  0.00000000E+00  0.00000000E+00  0.00000000E+00
  0.00000000E+00  0.00000000E+00  0.00000000E+00
  0.00000000E+00  0.00000000E+00  0.00000000E+00
  0.00000000E+00  0.00000000E+00  0.00000000E+00
  0.00000000E+00  0.00000000E+00  0.00000000E+00
  0.00000000E+00  0.00000000E+00  0.00000000E+00
  0.00000000E+00  0.00000000E+00  0.00000000E+00
  0.00000000E+00  0.00000000E+00  0.00000000E+00
  0.00000000E+00  0.00000000E+00  0.00000000E+00
  0.00000000E+00  0.00000000E+00  0.00000000E+00
  0.00000000E+00  0.00000000E+00  0.00000000E+00
  0.00000000E+00  0.00000000E+00  0.00000000E+00
  0.00000000E+00  0.00000000E+00  0.00000000E+00
  0.00000000E+00  0.00000000E+00  0.00000000E+00
  0.00000000E+00  0.00000000E+00  0.00000000E+00
  0.00000000E+00  0.00000000E+00  0.00000000E+00
  0.00000000E+00  0.00000000E+00  0.00000000E+00
  0.00000000E+00  0.00000000E+00  0.00000000E+00
  0.00000000E+00  0.00000000E+00  0.00000000E+00
  0.00000000E+00  0.00000000E+00  0.00000000E+00
  0.00000000E+00  0.00000000E+00  0.00000000E+00
  0.00000000E+00  0.00000000E+00  0.00000000E+00
  0.00000000E+00  0.00000000E+00  0.00000000E+00
  0.00000000E+00  0.00000000E+00  0.00000000E+00
  0.00000000E+00  0.00000000E+00  0.00000000E+00
