Au   Rh   Au   O    C    H              
   1.00000000000000     
    12.5100002288999992    0.0000000000000000    0.0000000000000000
     0.0000000000000000    8.8458995818999995    0.0000000000000000
     0.0000000000000000    0.0000000000000000   19.4230003356999994
   Au   Rh   Au   O    C    H 
    17     1    18     1     1     4
Selective dynamics
Direct
  0.0000000000000000  0.0000000000000000  0.0759100019830612   F   F   F
  0.9973037831965287 -0.0016894012184292  0.2263153415355131   T   T   T
  0.1705604433869532  0.1721846631902161  0.1635506069096228   T   T   T
  0.1666699946322368  0.1666699945381183  0.0000000000000000   F   F   F
  0.3333300054117316  0.0000000000000000  0.0759100019830612   F   F   F
  0.3369759620169608  0.0069296593035037  0.2287104822483205   T   T   T
  0.5014041724285907  0.1675840594160256  0.1574709067171184   T   T   T
  0.4999999999640323  0.1666699945381183  0.0000000000000000   F   F   F
  0.6666700244124115  0.0000000000000000  0.0759100019830612   F   F   F
  0.6628207424691840  0.9873000856529934  0.2296429928846143   T   T   T
  0.8287253159739925  0.1632960215428606  0.1588271731026632   T   T   T
  0.8333299756395505  0.1666699945381183  0.0000000000000000   F   F   F
  0.0000000000000000  0.3333300053544903  0.0759100019830612   F   F   F
  0.9946877485181423  0.3320953317849012  0.2271883838729003   T   T   T
  0.1683422588749111  0.4968404249980780  0.1609054149709402   T   T   T
  0.1666699946322368  0.5000000000056559  0.0000000000000000   F   F   F
  0.3333300054117316  0.3333300053544903  0.0759100019830612   F   F   F
  0.3441821611652909  0.3424580425272298  0.2250859880792202   T   T   T
  0.5007575142152302  0.4999134773282203  0.1515108045073494   T   T   T
  0.4999999999640323  0.5000000000056559  0.0000000000000000   F   F   F
  0.6666700244124115  0.3333300053544903  0.0759100019830612   F   F   F
  0.6726571698756715  0.3075851281262857  0.2366174119147392   T   T   T
  0.8250890777635354  0.4977391836349052  0.1616817094025845   T   T   T
  0.8333299756395505  0.5000000000056559  0.0000000000000000   F   F   F
  0.0000000000000000  0.6666700243881039  0.0759100019830612   F   F   F
  0.9996206518126532  0.6630577314384356  0.2270912987718797   T   T   T
  0.1670018445009714  0.8356413827373069  0.1596299687535729   T   T   T
  0.1666699946322368  0.8333299756288497  0.0000000000000000   F   F   F
  0.3333300054117316  0.6666700243881039  0.0759100019830612   F   F   F
  0.3337397362758260  0.6677280354720654  0.2269680416841076   T   T   T
  0.4984461671800465  0.8329026314055711  0.1566934596423102   T   T   T
  0.4999999999640323  0.8333299756288497  0.0000000000000000   F   F   F
  0.6666700244124115  0.6666700243881039  0.0759100019830612   F   F   F
  0.6542475593987934  0.6647293356155357  0.2387813870621031   T   T   T
  0.8261881127072258  0.8221632775474108  0.1633548965599709   T   T   T
  0.8333299756395505  0.8333299756288497  0.0000000000000000   F   F   F
  0.5723243445351532  0.4678303341446539  0.2877864040572057   T   T   T
  0.3907008986120364  0.3686134151782776  0.3371874822931539   T   T   T
  0.4302043743850689  0.2768769892857906  0.3647303804886373   T   T   T
  0.3855796719226953  0.4698225264936440  0.3690990102133185   T   T   T
  0.3061381961418931  0.3322221956456488  0.3281235779770522   T   T   T
  0.4714049499171200  0.4164887073681769  0.2986089655428628   T   T   T
 
  0.00000000E+00  0.00000000E+00  0.00000000E+00
  0.00000000E+00  0.00000000E+00  0.00000000E+00
  0.00000000E+00  0.00000000E+00  0.00000000E+00
  0.00000000E+00  0.00000000E+00  0.00000000E+00
  0.00000000E+00  0.00000000E+00  0.00000000E+00
  0.00000000E+00  0.00000000E+00  0.00000000E+00
  0.00000000E+00  0.00000000E+00  0.00000000E+00
  0.00000000E+00  0.00000000E+00  0.00000000E+00
  0.00000000E+00  0.00000000E+00  0.00000000E+00
  0.00000000E+00  0.00000000E+00  0.00000000E+00
  0.00000000E+00  0.00000000E+00  0.00000000E+00
  0.00000000E+00  0.00000000E+00  0.00000000E+00
  0.00000000E+00  0.00000000E+00  0.00000000E+00
  0.00000000E+00  0.00000000E+00  0.00000000E+00
  0.00000000E+00  0.00000000E+00  0.00000000E+00
  0.00000000E+00  0.00000000E+00  0.00000000E+00
  0.00000000E+00  0.00000000E+00  0.00000000E+00
  0.00000000E+00  0.00000000E+00  0.00000000E+00
  0.00000000E+00  0.00000000E+00  0.00000000E+00
  0.00000000E+00  0.00000000E+00  0.00000000E+00
  0.00000000E+00  0.00000000E+00  0.00000000E+00
  0.00000000E+00  0.00000000E+00  0.00000000E+00
  0.00000000E+00  0.00000000E+00  0.00000000E+00
  0.00000000E+00  0.00000000E+00  0.00000000E+00
  0.00000000E+00  0.00000000E+00  0.00000000E+00
  0.00000000E+00  0.00000000E+00  0.00000000E+00
  0.00000000E+00  0.00000000E+00  0.00000000E+00
  0.00000000E+00  0.00000000E+00  0.00000000E+00
  0.00000000E+00  0.00000000E+00  0.00000000E+00
  0.00000000E+00  0.00000000E+00  0.00000000E+00
  0.00000000E+00  0.00000000E+00  0.00000000E+00
  0.00000000E+00  0.00000000E+00  0.00000000E+00
  0.00000000E+00  0.00000000E+00  0.00000000E+00
  0.00000000E+00  0.00000000E+00  0.00000000E+00
  0.00000000E+00  0.00000000E+00  0.00000000E+00
  0.00000000E+00  0.00000000E+00  0.00000000E+00
  0.00000000E+00  0.00000000E+00  0.00000000E+00
  0.00000000E+00  0.00000000E+00  0.00000000E+00
  0.00000000E+00  0.00000000E+00  0.00000000E+00
  0.00000000E+00  0.00000000E+00  0.00000000E+00
  0.00000000E+00  0.00000000E+00  0.00000000E+00
  0.00000000E+00  0.00000000E+00  0.00000000E+00
