Ag In Ag O  C  H 
 1.0000000000000000
     8.8247003554999992    0.0000000000000000    0.0000000000000000
     0.0000000000000000    8.8247003554999992    0.0000000000000000
     0.0000000000000000    0.0000000000000000   21.2399997710999990
 Ag  In  Ag  O   C   H  
  17   1  18   1   1   4
Selective dynamics
Cartesian
  0.0000000000000000  0.0000000000000000  2.0800331610000176   F   F   F
  8.8140077692893826  8.8160482967364917  6.3744586569336983   T   T   T
  1.4708127609999764  1.4708127609999764  0.0000000000000000   F   F   F
  1.4681298723153868  1.5047124838932555  4.2303981076936674   T   T   T
  2.9415374170000210  0.0000000000000000  2.0800331610000176   F   F   F
  2.9416014396805159  0.0456466830009629  6.3458388323450814   T   T   T
  4.4123501779999978  1.4708127609999764  0.0000000000000000   F   F   F
  4.4113297069645556  1.5050843247289356  4.2295925185725523   T   T   T
  5.8831632009999959  0.0000000000000000  2.0800331610000176   F   F   F
  5.8939976887487333  8.8158473112811802  6.3742550657298489   T   T   T
  7.3538873320000047  1.4708127609999764  0.0000000000000000   F   F   F
  7.3524324277034054  1.4588418942110466  4.2278607549048131   T   T   T
  0.0000000000000000  2.9415374170000210  2.0800331610000176   F   F   F
  8.7901520385799046  2.9146804410052809  6.3453903368712172   T   T   T
  1.4708127609999764  4.4123501779999978  0.0000000000000000   F   F   F
  1.4934402668341527  4.4209750770741252  4.2554449560888798   T   T   T
  2.9415374170000210  2.9415374170000210  2.0800331610000176   F   F   F
  2.9371304348800873  2.8032433589540511  6.8111147235402312   T   T   T
  4.4123501779999978  4.4123501779999978  0.0000000000000000   F   F   F
  4.3863192948688905  4.4221356932866565  4.2540189016280490   T   T   T
  5.8831632009999959  2.9415374170000210  2.0800331610000176   F   F   F
  5.9074558670761439  2.9141020533517810  6.3441596866539349   T   T   T
  7.3538873320000047  4.4123501779999978  0.0000000000000000   F   F   F
  7.3531862038574962  4.4028022745443014  4.2308173153171600   T   T   T
  0.0000000000000000  5.8831632009999959  2.0800331610000176   F   F   F
  8.8114276618521767  5.8797512624912454  6.3545084456625061   T   T   T
  1.4708127609999764  7.3538873320000047  0.0000000000000000   F   F   F
  1.4830591273532447  7.3608243358351721  4.2411140003350827   T   T   T
  2.9415374170000210  5.8831632009999959  2.0800331610000176   F   F   F
  2.9408742213217391  6.0702389523983209  6.4316007655053049   T   T   T
  4.4123501779999978  7.3538873320000047  0.0000000000000000   F   F   F
  4.4012723053821121  7.3614812765093260  4.2407433899647433   T   T   T
  5.8831632009999959  5.8831632009999959  2.0800331610000176   F   F   F
  5.8961057891368638  5.8784576729849487  6.3550953974130913   T   T   T
  7.3538873320000047  7.3538873320000047  0.0000000000000000   F   F   F
  7.3539594189907946  7.3439879532814194  4.2307817193507331   T   T   T
  2.9629086759667507  4.4850952167208966  7.9027301528514311   T   T   T
  2.9340653357143651  2.6032668474155600  8.9111147235402317   T   T   T
  2.9339760232328969  1.5264074079049799  9.0913945975703871   T   T   T
  3.8241121396951279  3.0394946791108945  9.3654763472942744   T   T   T
  2.0443758620797405  3.0398426815911535  9.3659095210479659   T   T   T
  2.9629086759667507  4.4850952167208966  8.8727301528514317   T   T   T
