Au Sc Au O  C  H 
 1.0000000000000000
     8.8458995818999995    0.0000000000000000    0.0000000000000000
    -4.4229497909999997    7.6607737573000003    0.0000000000000000
     0.0000000000000000    0.0000000000000000   22.2227001189999989
 Au  Sc  Au  O   C   H  
  17   1  18   1   1   4
Selective dynamics
Cartesian
  0.0000000000000000  0.0000000000000000  0.0000000000000000   F   F   F
  0.0295915185234347  0.0114761915297876  7.3533842479315874   T   T   T
  1.4779333209105938  0.8770662370109822  4.8750975086795263   T   T   T
 -0.0000000000000179  1.7023772000000148  2.4076073170000654   F   F   F
  2.9486038680000033  0.0000000000000000  0.0000000000000000   F   F   F
  2.9199480587575759  0.0638660714869985  7.3639990797263266   T   T   T
  4.4293747327956341  0.8474843835337688  4.8443600680119241   T   T   T
  2.9486036299999960  1.7023772000000148  2.4076073170000654   F   F   F
  5.8972959519999852  0.0000000000000000  0.0000000000000000   F   F   F
  5.8959614641103615  0.0007656855720820  7.3357484273653926   T   T   T
  7.3702534231960755  0.8758593675232978  4.8662148852609244   T   T   T
  5.8972959519999684  1.7023772000000148  2.4076073170000654   F   F   F
  7.3715976478999874  2.5535657409999883  0.0000000000000000   F   F   F
  7.3926628436112667  2.3682860404473218  7.4438313019680953   T   T   T
  0.0138367765210763  3.3967946223369929  4.9489103270348220   T   T   T
 -1.4743459220000192  4.2560195920000252  2.4076073170000654   F   F   F
  1.4743019339999919  2.5535657409999883  0.0000000000000000   F   F   F
  1.4629996102652987  2.5600830843310249  7.3840281260147167   T   T   T
  2.9280342732845570  3.3886079174346442  4.8751071837896536   T   T   T
  1.4742577079999950  4.2560195920000252  2.4076073170000654   F   F   F
  4.4229941369999999  2.5535657409999883  0.0000000000000000   F   F   F
  4.3532529323686262  2.5464252835790204  7.3639637054618046   T   T   T
  5.9033264580930211  3.4135905193730371  4.8932510643504816   T   T   T
  4.4229497909999722  4.2560195920000252  2.4076073170000654   F   F   F
 -2.9486479760000139  5.1072082520000013  0.0000000000000000   F   F   F
  5.7835078147829106  5.1727708284498357  7.4287080780145027   T   T   T
 -1.4789793487186895  5.9486825887330967  4.8931138471536029   T   T   T
 -2.9486479759999997  6.8095855710000182  2.4076073170000654   F   F   F
 -0.0000441070000049  5.1072082520000013  0.0000000000000000   F   F   F
  0.1709581366560392  5.1816029505386494  7.4437560698390355   T   T   T
  1.4522624602757195  5.9471812412095666  4.8661651204754888   T   T   T
 -0.0000443459999857  6.8095855710000182  2.4076073170000654   F   F   F
  2.9486479759999722  5.1072082520000013  0.0000000000000000   F   F   F
  2.9534438799711005  5.0758830240468971  7.3532577708456444   T   T   T
  4.4506385636124950  5.9423583041604147  4.8532975924801072   T   T   T
  2.9486477379999969  6.8095855710000182  2.4076073170000654   F   F   F
 -1.3951921680281616  4.2102401076774543  8.5885884004750714   T   T   T
  1.4629996102652987  2.5600830843310249  9.4840281260147172   T   T   T
  2.3832685122966613  2.0287639484892916  9.7738179466000918   T   T   T
  1.5215021898228922  3.5657201156766520  9.9016275675491237   T   T   T
  0.6213492936705103  2.0066124558631273  9.9016257750252308   T   T   T
 -1.3951921680281616  4.2102401076774543  9.5585884004750721   T   T   T
