Cu Tc Cu O                              
   1.00000000000000     
     7.7216000556999997    0.0000000000000000    0.0000000000000000
     0.0000000000000000    7.7216000556999997    0.0000000000000000
     0.0000000000000000    0.0000000000000000   20.4599990845000015
   Cu   Tc   Cu   O 
    17     1    18     1
Selective dynamics
Direct
  0.0000000000000000  0.0000000000000000  0.0889500007054593   F   F   F
 -0.0141274011823993 -0.0141023324510948  0.2640387745040411   T   T   T
  0.1666699946535033  0.1666699946535033  0.0000000000000000   F   F   F
  0.1667046750386405  0.1667068761077503  0.1766736508021352   T   T   T
  0.3333300053659229  0.0000000000000000  0.0889500007054593   F   F   F
  0.3195291014781926  0.0038443879254509  0.2688819129495916   T   T   T
  0.5000000000194262  0.1666699946535033  0.0000000000000000   F   F   F
  0.4969099802054823  0.1699472245527552  0.1791465868022546   T   T   T
  0.6666700243299957  0.0000000000000000  0.0889500007054593   F   F   F
  0.6587492991739597 -0.0020205530322424  0.2646111942732868   T   T   T
  0.8333299755987795  0.1666699946535033  0.0000000000000000   F   F   F
  0.8347295942271165  0.1632013483997554  0.1786577475674625   T   T   T
  0.0000000000000000  0.3333300053659229  0.0889500007054593   F   F   F
  0.0038155975694929  0.3195421283017826  0.2688960026099640   T   T   T
  0.1666699946535033  0.5000000000194262  0.0000000000000000   F   F   F
  0.1699305807972151  0.4969505767601692  0.1791325952563752   T   T   T
  0.3333300053659229  0.3333300053659229  0.0889500007054593   F   F   F
  0.3520823262497454  0.3520083022974664  0.2712525623244020   T   T   T
  0.5000000000194262  0.5000000000194262  0.0000000000000000   F   F   F
  0.5044768010334620  0.5044722695298385  0.1743443399334735   T   T   T
  0.6666700243299957  0.3333300053659229  0.0889500007054593   F   F   F
  0.6778829348591793  0.3275916535111972  0.2657690705260322   T   T   T
  0.8333299755987795  0.5000000000194262  0.0000000000000000   F   F   F
  0.8372318786442180  0.4943981579412376  0.1792353947122627   T   T   T
  0.0000000000000000  0.6666700243299957  0.0889500007054593   F   F   F
 -0.0019895107714101  0.6587561737158890  0.2646134139013504   T   T   T
  0.1666699946535033  0.8333299755987795  0.0000000000000000   F   F   F
  0.1631893718147620  0.8347557735211548  0.1786584297851410   T   T   T
  0.3333300053659229  0.6666700243299957  0.0889500007054593   F   F   F
  0.3276066863245117  0.6779430330183110  0.2657798164628805   T   T   T
  0.5000000000194262  0.8333299755987795  0.0000000000000000   F   F   F
  0.4943633792070569  0.8372168649044989  0.1792340219946648   T   T   T
  0.6666700243299957  0.6666700243299957  0.0889500007054593   F   F   F
  0.6566471072496851  0.6566316184833355  0.2653831911528955   T   T   T
  0.8333299755987795  0.8333299755987795  0.0000000000000000   F   F   F
  0.8267906956044385  0.8267887482450070  0.1783830568305533   T   T   T
  0.2201469808031155  0.2201476330903692  0.3245996728126069   T   T   T
 
  0.00000000E+00  0.00000000E+00  0.00000000E+00
  0.00000000E+00  0.00000000E+00  0.00000000E+00
  0.00000000E+00  0.00000000E+00  0.00000000E+00
  0.00000000E+00  0.00000000E+00  0.00000000E+00
  0.00000000E+00  0.00000000E+00  0.00000000E+00
  0.00000000E+00  0.00000000E+00  0.00000000E+00
  0.00000000E+00  0.00000000E+00  0.00000000E+00
  0.00000000E+00  0.00000000E+00  0.00000000E+00
  0.00000000E+00  0.00000000E+00  0.00000000E+00
  0.00000000E+00  0.00000000E+00  0.00000000E+00
  0.00000000E+00  0.00000000E+00  0.00000000E+00
  0.00000000E+00  0.00000000E+00  0.00000000E+00
  0.00000000E+00  0.00000000E+00  0.00000000E+00
  0.00000000E+00  0.00000000E+00  0.00000000E+00
  0.00000000E+00  0.00000000E+00  0.00000000E+00
  0.00000000E+00  0.00000000E+00  0.00000000E+00
  0.00000000E+00  0.00000000E+00  0.00000000E+00
  0.00000000E+00  0.00000000E+00  0.00000000E+00
  0.00000000E+00  0.00000000E+00  0.00000000E+00
  0.00000000E+00  0.00000000E+00  0.00000000E+00
  0.00000000E+00  0.00000000E+00  0.00000000E+00
  0.00000000E+00  0.00000000E+00  0.00000000E+00
  0.00000000E+00  0.00000000E+00  0.00000000E+00
  0.00000000E+00  0.00000000E+00  0.00000000E+00
  0.00000000E+00  0.00000000E+00  0.00000000E+00
  0.00000000E+00  0.00000000E+00  0.00000000E+00
  0.00000000E+00  0.00000000E+00  0.00000000E+00
  0.00000000E+00  0.00000000E+00  0.00000000E+00
  0.00000000E+00  0.00000000E+00  0.00000000E+00
  0.00000000E+00  0.00000000E+00  0.00000000E+00
  0.00000000E+00  0.00000000E+00  0.00000000E+00
  0.00000000E+00  0.00000000E+00  0.00000000E+00
  0.00000000E+00  0.00000000E+00  0.00000000E+00
  0.00000000E+00  0.00000000E+00  0.00000000E+00
  0.00000000E+00  0.00000000E+00  0.00000000E+00
  0.00000000E+00  0.00000000E+00  0.00000000E+00
  0.00000000E+00  0.00000000E+00  0.00000000E+00
