Ag Ge Ag O                              
   1.00000000000000     
     8.8247003554999992    0.0000000000000000    0.0000000000000000
     0.0000000000000000    8.8247003554999992    0.0000000000000000
     0.0000000000000000    0.0000000000000000   21.2399997710999990
   Ag   Ge   Ag   O 
    17     1    18     1
Selective dynamics
Direct
     0.0000000000000000    0.0000000000000000    0.0979299992192182   F   F   F
     0.9991192531262116    0.9974909803314181    0.2942847421320675   T   T   T
     0.1666699946455736    0.1666699946455736    0.0000000000000000   F   F   F
     0.1652831258767031    0.1693373808763507    0.1955010078036931   T   T   T
     0.3333300053827557    0.0000000000000000    0.0979299992192182   F   F   F
     0.3333366430655864    0.0110633491069463    0.2962535236702371   T   T   T
     0.5000000000283293    0.1666699946455736    0.0000000000000000   F   F   F
     0.5013864720066012    0.1693353341247937    0.1955010424083627   T   T   T
     0.6666700243632988    0.0000000000000000    0.0979299992192182   F   F   F
     0.6675471113216431    0.9974897755652906    0.2942841411980035   T   T   T
     0.8333299756083719    0.1666699946455736    0.0000000000000000   F   F   F
     0.8333344699729034    0.1657318795025626    0.1967105326179116   T   T   T
     0.0000000000000000    0.3333300053827557    0.0979299992192182   F   F   F
     0.9998158086787788    0.3290749889515650    0.2932867564956991   T   T   T
     0.1666699946455736    0.5000000000283293    0.0000000000000000   F   F   F
     0.1704606804790312    0.5000393174066359    0.1986375087987660   T   T   T
     0.3333300053827557    0.3333300053827557    0.0979299992192182   F   F   F
     0.3333340972316339    0.3226310310300597    0.3053348171276450   T   T   T
     0.5000000000283293    0.5000000000283293    0.0000000000000000   F   F   F
     0.4962053444645909    0.5000398119203493    0.1986360681554842   T   T   T
     0.6666700243632988    0.3333300053827557    0.0979299992192182   F   F   F
     0.6668448404766641    0.3290735523104726    0.2932857623417885   T   T   T
     0.8333299756083719    0.5000000000283293    0.0000000000000000   F   F   F
     0.8333340387664663    0.4981594991190199    0.1970070793684951   T   T   T
     0.0000000000000000    0.6666700243632988    0.0979299992192182   F   F   F
     0.9971457002138456    0.6686565661972125    0.2921295202901274   T   T   T
     0.1666699946455736    0.8333299756083719    0.0000000000000000   F   F   F
     0.1695786967339534    0.8349768292651571    0.1982850617453024   T   T   T
     0.3333300053827557    0.6666700243632988    0.0979299992192182   F   F   F
     0.3333317581332183    0.6882165133012389    0.2998876622614659   T   T   T
     0.5000000000283293    0.8333299756083719    0.0000000000000000   F   F   F
     0.4970838486639120    0.8349754822653161    0.1982830125329318   T   T   T
     0.6666700243632988    0.6666700243632988    0.0979299992192182   F   F   F
     0.6695157636639717    0.6686539029297695    0.2921292265258199   T   T   T
     0.8333299756083719    0.8333299756083719    0.0000000000000000   F   F   F
     0.8333325722229397    0.8339556608763198    0.1950733860023386   T   T   T
     0.3333322324648023    0.4723113167545847    0.3579603670599535   T   T   T
 
  0.00000000E+00  0.00000000E+00  0.00000000E+00
  0.00000000E+00  0.00000000E+00  0.00000000E+00
  0.00000000E+00  0.00000000E+00  0.00000000E+00
  0.00000000E+00  0.00000000E+00  0.00000000E+00
  0.00000000E+00  0.00000000E+00  0.00000000E+00
  0.00000000E+00  0.00000000E+00  0.00000000E+00
  0.00000000E+00  0.00000000E+00  0.00000000E+00
  0.00000000E+00  0.00000000E+00  0.00000000E+00
  0.00000000E+00  0.00000000E+00  0.00000000E+00
  0.00000000E+00  0.00000000E+00  0.00000000E+00
  0.00000000E+00  0.00000000E+00  0.00000000E+00
  0.00000000E+00  0.00000000E+00  0.00000000E+00
  0.00000000E+00  0.00000000E+00  0.00000000E+00
  0.00000000E+00  0.00000000E+00  0.00000000E+00
  0.00000000E+00  0.00000000E+00  0.00000000E+00
  0.00000000E+00  0.00000000E+00  0.00000000E+00
  0.00000000E+00  0.00000000E+00  0.00000000E+00
  0.00000000E+00  0.00000000E+00  0.00000000E+00
  0.00000000E+00  0.00000000E+00  0.00000000E+00
  0.00000000E+00  0.00000000E+00  0.00000000E+00
  0.00000000E+00  0.00000000E+00  0.00000000E+00
  0.00000000E+00  0.00000000E+00  0.00000000E+00
  0.00000000E+00  0.00000000E+00  0.00000000E+00
  0.00000000E+00  0.00000000E+00  0.00000000E+00
  0.00000000E+00  0.00000000E+00  0.00000000E+00
  0.00000000E+00  0.00000000E+00  0.00000000E+00
  0.00000000E+00  0.00000000E+00  0.00000000E+00
  0.00000000E+00  0.00000000E+00  0.00000000E+00
  0.00000000E+00  0.00000000E+00  0.00000000E+00
  0.00000000E+00  0.00000000E+00  0.00000000E+00
  0.00000000E+00  0.00000000E+00  0.00000000E+00
  0.00000000E+00  0.00000000E+00  0.00000000E+00
  0.00000000E+00  0.00000000E+00  0.00000000E+00
  0.00000000E+00  0.00000000E+00  0.00000000E+00
  0.00000000E+00  0.00000000E+00  0.00000000E+00
  0.00000000E+00  0.00000000E+00  0.00000000E+00
  0.00000000E+00  0.00000000E+00  0.00000000E+00
