Cu Sn Cu O  C  H                        
   1.00000000000000     
    10.9200000762999991    0.0000000000000000    0.0000000000000000
     0.0000000000000000    7.7216000556999997    0.0000000000000000
     0.0000000000000000    0.0000000000000000   18.8607997894000015
   Cu   Sn   Cu   O    C    H 
    16     1    19     1     1     4
Selective dynamics
Direct
 -0.0018377074436644  0.9947044282322891  0.2023581631148187   T   T   T
  0.1647879836953066  0.1622334196817758  0.1381463303348431   T   T   T
  0.1666699946229926  0.1666699946535033  0.0000000000000000   F   F   F
  0.0000000000000000  0.0000000000000000  0.0682300030947403   F   F   F
  0.3333272554592928  0.9864044586108380  0.2102013679672096   T   T   T
  0.5018848275599952  0.1622333518469276  0.1381442622993587   T   T   T
  0.4999999999862652  0.1666699946535033  0.0000000000000000   F   F   F
  0.3333300053632726  0.0000000000000000  0.0682300030947403   F   F   F
  0.6685086740019298  0.9947061647020902  0.2023592416923643   T   T   T
  0.8333359019540402  0.1642460141948903  0.1394573242700361   T   T   T
  0.8333299755876311  0.1666699946535033  0.0000000000000000   F   F   F
  0.6666700243711574  0.0000000000000000  0.0682300030947403   F   F   F
  0.0003101590630437  0.3286395949515530  0.2019818257409362   T   T   T
  0.1694696390689472  0.4993562554121630  0.1395597689191873   T   T   T
  0.1666699946229926  0.5000000000194262  0.0000000000000000   F   F   F
  0.0000000000000000  0.3333300053659229  0.0682300030947403   F   F   F
  0.3333428075082960  0.3208208342391090  0.2231895872626346   T   T   T
  0.4972095701766043  0.4993618105857388  0.1395596990760529   T   T   T
  0.4999999999862652  0.5000000000194262  0.0000000000000000   F   F   F
  0.3333300053632726  0.3333300053659229  0.0682300030947403   F   F   F
  0.6663575293855121  0.3286465513232243  0.2019804555306924   T   T   T
  0.8333393298065688  0.4958901580744559  0.1394467130432486   T   T   T
  0.8333299755876311  0.5000000000194262  0.0000000000000000   F   F   F
  0.6666700243711574  0.3333300053659229  0.0682300030947403   F   F   F
 -0.0001644397631561  0.6624120087790011  0.2016416439233346   T   T   T
  0.1669947435073117  0.8309185453572703  0.1384315511615028   T   T   T
  0.1666699946229926  0.8333299755987795  0.0000000000000000   F   F   F
  0.0000000000000000  0.6666700243299957  0.0682300030947403   F   F   F
  0.3333519426361248  0.6800500697192075  0.2140787852288095   T   T   T
  0.4996796652810723  0.8309175293261281  0.1384328272266191   T   T   T
  0.4999999999862652  0.8333299755987795  0.0000000000000000   F   F   F
  0.3333300053632726  0.6666700243299957  0.0682300030947403   F   F   F
  0.6668391420653791  0.6624052278493214  0.2016432664277050   T   T   T
  0.8333303223508628  0.8291491373637310  0.1390910090658431   T   T   T
  0.8333299755876311  0.8333299755987795  0.0000000000000000   F   F   F
  0.6666700243711574  0.6666700243299957  0.0682300030947403   F   F   F
  0.3330336378899241  0.4947085602453506  0.3072701565538101   T   T   T
  0.3333455583849428  0.8821193342299436  0.3107958299191197   T   T   T
  0.3333614860285503  0.0108412707666787  0.3352774544446335   T   T   T
  0.2513246862359106  0.8144872931288197  0.3287765497930269   T   T   T
  0.4153777176322355  0.8144798112927757  0.3287671358865327   T   T   T
  0.3335432094953165  0.4663508965635418  0.3572224927686398   T   T   T
 
  0.00000000E+00  0.00000000E+00  0.00000000E+00
  0.00000000E+00  0.00000000E+00  0.00000000E+00
  0.00000000E+00  0.00000000E+00  0.00000000E+00
  0.00000000E+00  0.00000000E+00  0.00000000E+00
  0.00000000E+00  0.00000000E+00  0.00000000E+00
  0.00000000E+00  0.00000000E+00  0.00000000E+00
  0.00000000E+00  0.00000000E+00  0.00000000E+00
  0.00000000E+00  0.00000000E+00  0.00000000E+00
  0.00000000E+00  0.00000000E+00  0.00000000E+00
  0.00000000E+00  0.00000000E+00  0.00000000E+00
  0.00000000E+00  0.00000000E+00  0.00000000E+00
  0.00000000E+00  0.00000000E+00  0.00000000E+00
  0.00000000E+00  0.00000000E+00  0.00000000E+00
  0.00000000E+00  0.00000000E+00  0.00000000E+00
  0.00000000E+00  0.00000000E+00  0.00000000E+00
  0.00000000E+00  0.00000000E+00  0.00000000E+00
  0.00000000E+00  0.00000000E+00  0.00000000E+00
  0.00000000E+00  0.00000000E+00  0.00000000E+00
  0.00000000E+00  0.00000000E+00  0.00000000E+00
  0.00000000E+00  0.00000000E+00  0.00000000E+00
  0.00000000E+00  0.00000000E+00  0.00000000E+00
  0.00000000E+00  0.00000000E+00  0.00000000E+00
  0.00000000E+00  0.00000000E+00  0.00000000E+00
  0.00000000E+00  0.00000000E+00  0.00000000E+00
  0.00000000E+00  0.00000000E+00  0.00000000E+00
  0.00000000E+00  0.00000000E+00  0.00000000E+00
  0.00000000E+00  0.00000000E+00  0.00000000E+00
  0.00000000E+00  0.00000000E+00  0.00000000E+00
  0.00000000E+00  0.00000000E+00  0.00000000E+00
  0.00000000E+00  0.00000000E+00  0.00000000E+00
  0.00000000E+00  0.00000000E+00  0.00000000E+00
  0.00000000E+00  0.00000000E+00  0.00000000E+00
  0.00000000E+00  0.00000000E+00  0.00000000E+00
  0.00000000E+00  0.00000000E+00  0.00000000E+00
  0.00000000E+00  0.00000000E+00  0.00000000E+00
  0.00000000E+00  0.00000000E+00  0.00000000E+00
  0.00000000E+00  0.00000000E+00  0.00000000E+00
  0.00000000E+00  0.00000000E+00  0.00000000E+00
  0.00000000E+00  0.00000000E+00  0.00000000E+00
  0.00000000E+00  0.00000000E+00  0.00000000E+00
  0.00000000E+00  0.00000000E+00  0.00000000E+00
  0.00000000E+00  0.00000000E+00  0.00000000E+00
