Au Cr Au O                              
   1.00000000000000     
    12.5100002288999992    0.0000000000000000    0.0000000000000000
     0.0000000000000000    8.8458995818999995    0.0000000000000000
     0.0000000000000000    0.0000000000000000   19.4230003356999994
   Au   Cr   Au   O 
    17     1    18     1
Selective dynamics
Direct
     0.0000000000000000    0.0000000000000000    0.0759100019830612   F   F   F
     0.0277512528356942    0.0013092939131812    0.2303794727825730   T   T   T
     0.1650518749530696    0.1796460111859855    0.1461745469994565   T   T   T
     0.1666699946322368    0.1666699945381183    0.0000000000000000   F   F   F
     0.3333300054117316    0.0000000000000000    0.0759100019830612   F   F   F
     0.2989202691820384    0.0668813790006568    0.2492102465796716   T   T   T
     0.4799501247178533    0.1500179663149654    0.1800373070387910   T   T   T
     0.4999999999640323    0.1666699945381183    0.0000000000000000   F   F   F
     0.6666700244124115    0.0000000000000000    0.0759100019830612   F   F   F
     0.6638117875834204    0.9896841437010249    0.2210503936094416   T   T   T
     0.8454979916915987    0.1519985533192044    0.1645735976366028   T   T   T
     0.8333299756395505    0.1666699945381183    0.0000000000000000   F   F   F
     0.0000000000000000    0.3333300053544903    0.0759100019830612   F   F   F
     0.9999967183400452    0.3396408976636558    0.2242687021960218   T   T   T
     0.1657107879014177    0.5002763389659576    0.1586998578348251   T   T   T
     0.1666699946322368    0.5000000000056559    0.0000000000000000   F   F   F
     0.3333300054117316    0.3333300053544903    0.0759100019830612   F   F   F
     0.3259325632504393    0.3418383973148088    0.2097730610538016   T   T   T
     0.5003366786607487    0.4789546540598332    0.1630983681038152   T   T   T
     0.4999999999640323    0.5000000000056559    0.0000000000000000   F   F   F
     0.6666700244124115    0.3333300053544903    0.0759100019830612   F   F   F
     0.6722766093286988    0.3135242250462851    0.2196364586452849   T   T   T
     0.8319990653204358    0.5003704556022263    0.1587852307843550   T   T   T
     0.8333299756395505    0.5000000000056559    0.0000000000000000   F   F   F
     0.0000000000000000    0.6666700243881039    0.0759100019830612   F   F   F
     0.0056181706799291    0.6678096748581590    0.2236609887867753   T   T   T
     0.1791444581899478    0.8270716399523962    0.1542915732271609   T   T   T
     0.1666699946322368    0.8333299756288497    0.0000000000000000   F   F   F
     0.3333300054117316    0.6666700243881039    0.0759100019830612   F   F   F
     0.3351396090834903    0.6380508171719615    0.2278059008705951   T   T   T
     0.4867589005145430    0.8287738373523029    0.1610472225728757   T   T   T
     0.4999999999640323    0.8333299756288497    0.0000000000000000   F   F   F
     0.6666700244124115    0.6666700243881039    0.0759100019830612   F   F   F
     0.6629039251327901    0.6654900987446034    0.2194154055284468   T   T   T
     0.8423874176361604    0.8349410936080021    0.1636901348415979   T   T   T
     0.8333299756395505    0.8333299756288497    0.0000000000000000   F   F   F
     0.1627450391715738    0.0039495107260826    0.2969892746938411   T   T   T
 
  0.00000000E+00  0.00000000E+00  0.00000000E+00
  0.00000000E+00  0.00000000E+00  0.00000000E+00
  0.00000000E+00  0.00000000E+00  0.00000000E+00
  0.00000000E+00  0.00000000E+00  0.00000000E+00
  0.00000000E+00  0.00000000E+00  0.00000000E+00
  0.00000000E+00  0.00000000E+00  0.00000000E+00
  0.00000000E+00  0.00000000E+00  0.00000000E+00
  0.00000000E+00  0.00000000E+00  0.00000000E+00
  0.00000000E+00  0.00000000E+00  0.00000000E+00
  0.00000000E+00  0.00000000E+00  0.00000000E+00
  0.00000000E+00  0.00000000E+00  0.00000000E+00
  0.00000000E+00  0.00000000E+00  0.00000000E+00
  0.00000000E+00  0.00000000E+00  0.00000000E+00
  0.00000000E+00  0.00000000E+00  0.00000000E+00
  0.00000000E+00  0.00000000E+00  0.00000000E+00
  0.00000000E+00  0.00000000E+00  0.00000000E+00
  0.00000000E+00  0.00000000E+00  0.00000000E+00
  0.00000000E+00  0.00000000E+00  0.00000000E+00
  0.00000000E+00  0.00000000E+00  0.00000000E+00
  0.00000000E+00  0.00000000E+00  0.00000000E+00
  0.00000000E+00  0.00000000E+00  0.00000000E+00
  0.00000000E+00  0.00000000E+00  0.00000000E+00
  0.00000000E+00  0.00000000E+00  0.00000000E+00
  0.00000000E+00  0.00000000E+00  0.00000000E+00
  0.00000000E+00  0.00000000E+00  0.00000000E+00
  0.00000000E+00  0.00000000E+00  0.00000000E+00
  0.00000000E+00  0.00000000E+00  0.00000000E+00
  0.00000000E+00  0.00000000E+00  0.00000000E+00
  0.00000000E+00  0.00000000E+00  0.00000000E+00
  0.00000000E+00  0.00000000E+00  0.00000000E+00
  0.00000000E+00  0.00000000E+00  0.00000000E+00
  0.00000000E+00  0.00000000E+00  0.00000000E+00
  0.00000000E+00  0.00000000E+00  0.00000000E+00
  0.00000000E+00  0.00000000E+00  0.00000000E+00
  0.00000000E+00  0.00000000E+00  0.00000000E+00
  0.00000000E+00  0.00000000E+00  0.00000000E+00
  0.00000000E+00  0.00000000E+00  0.00000000E+00
