Ag   Co   Ag   O    C    H              
   1.00000000000000     
    12.4799995421999999    0.0000000000000000    0.0000000000000000
     0.0000000000000000    8.8247003554999992    0.0000000000000000
     0.0000000000000000    0.0000000000000000   19.4123001098999985
   Ag   Co   Ag   O    C    H 
    16     1    19     1     1     4
Selective dynamics
Direct
  0.0016127373439405  0.9984287854448003  0.2282153965509941   T   T   T
  0.1694256048651504  0.1652280315627110  0.1534584255601930   T   T   T
  0.1666698779087739  0.1666696817737616  0.0000000000000000   F   F   F
  0.0000000000000000  0.0000000000000000  0.0757700010649387   F   F   F
  0.3318692865119767  0.0021783393825622  0.2302776691616991   T   T   T
  0.4930448903467502  0.1715704065083990  0.1596665257016073   T   T   T
  0.5000000183413462  0.1666696817737616  0.0000000000000000   F   F   F
  0.3333301404325724  0.0000000000000000  0.0757700010649387   F   F   F
  0.6646742987315307  0.0016281575231581  0.2275123168818739   T   T   T
  0.8360144077812234  0.1682023740053235  0.1577029178387672   T   T   T
  0.8333301587739186  0.1666696817737616  0.0000000000000000   F   F   F
  0.6666698962501201  0.0000000000000000  0.0757700010649387   F   F   F
  0.0048860289740558  0.3333365888011664  0.2322400104970977   T   T   T
  0.1694607581101587  0.5013507689976403  0.1534834152057314   T   T   T
  0.1666698779087739  0.4999999798576766  0.0000000000000000   F   F   F
  0.0000000000000000  0.3333302980839079  0.0757700010649387   F   F   F
  0.3208014570613923  0.3333803996704987  0.2341386996235199   T   T   T
  0.4930278898286076  0.4951379599458521  0.1596580898257788   T   T   T
  0.5000000183413462  0.4999999798576766  0.0000000000000000   F   F   F
  0.3333301404325724  0.3333302980839079  0.0757700010649387   F   F   F
  0.6668767703039183  0.3333554004612090  0.2284522662739567   T   T   T
  0.8360323996757525  0.4984669885710337  0.1577067067193042   T   T   T
  0.8333301587739186  0.4999999798576766  0.0000000000000000   F   F   F
  0.6666698962501201  0.3333302980839079  0.0757700010649387   F   F   F
  0.0016077710944700  0.6682421358638176  0.2282129460532692   T   T   T
  0.1682077199171201  0.8333479206044069  0.1563252937548037   T   T   T
  0.1666698779087739  0.8333302779415845  0.0000000000000000   F   F   F
  0.0000000000000000  0.6666696616314383  0.0757700010649387   F   F   F
  0.3318569903402430  0.6645590648654167  0.2302572117355852   T   T   T
  0.4977954490770698  0.8333135743093971  0.1570814463807990   T   T   T
  0.5000000183413462  0.8333302779415845  0.0000000000000000   F   F   F
  0.3333301404325724  0.6666696616314383  0.0757700010649387   F   F   F
  0.6646877071067699  0.6650697040158837  0.2275034861967047   T   T   T
  0.8325146153779011  0.8333437837456376  0.1567701868714476   T   T   T
  0.8333301587739186  0.8333302779415845  0.0000000000000000   F   F   F
  0.6666698962501201  0.6666696616314383  0.0757700010649387   F   F   F
  0.1858847429946932  0.3325841787166580  0.2758953857941965   T   T   T
  0.3618610253962126  0.3335775668277557  0.3499815947552355   T   T   T
  0.4437888342807952  0.3336954034030811  0.3297328141050735   T   T   T
  0.3518366046688294  0.4353352006760194  0.3815666081228473   T   T   T
  0.3520189521097338  0.2318729188303064  0.3816046717532675   T   T   T
  0.2570173265696975  0.3331029510209090  0.3183493239514228   T   T   T
 
  0.00000000E+00  0.00000000E+00  0.00000000E+00
  0.00000000E+00  0.00000000E+00  0.00000000E+00
  0.00000000E+00  0.00000000E+00  0.00000000E+00
  0.00000000E+00  0.00000000E+00  0.00000000E+00
  0.00000000E+00  0.00000000E+00  0.00000000E+00
  0.00000000E+00  0.00000000E+00  0.00000000E+00
  0.00000000E+00  0.00000000E+00  0.00000000E+00
  0.00000000E+00  0.00000000E+00  0.00000000E+00
  0.00000000E+00  0.00000000E+00  0.00000000E+00
  0.00000000E+00  0.00000000E+00  0.00000000E+00
  0.00000000E+00  0.00000000E+00  0.00000000E+00
  0.00000000E+00  0.00000000E+00  0.00000000E+00
  0.00000000E+00  0.00000000E+00  0.00000000E+00
  0.00000000E+00  0.00000000E+00  0.00000000E+00
  0.00000000E+00  0.00000000E+00  0.00000000E+00
  0.00000000E+00  0.00000000E+00  0.00000000E+00
  0.00000000E+00  0.00000000E+00  0.00000000E+00
  0.00000000E+00  0.00000000E+00  0.00000000E+00
  0.00000000E+00  0.00000000E+00  0.00000000E+00
  0.00000000E+00  0.00000000E+00  0.00000000E+00
  0.00000000E+00  0.00000000E+00  0.00000000E+00
  0.00000000E+00  0.00000000E+00  0.00000000E+00
  0.00000000E+00  0.00000000E+00  0.00000000E+00
  0.00000000E+00  0.00000000E+00  0.00000000E+00
  0.00000000E+00  0.00000000E+00  0.00000000E+00
  0.00000000E+00  0.00000000E+00  0.00000000E+00
  0.00000000E+00  0.00000000E+00  0.00000000E+00
  0.00000000E+00  0.00000000E+00  0.00000000E+00
  0.00000000E+00  0.00000000E+00  0.00000000E+00
  0.00000000E+00  0.00000000E+00  0.00000000E+00
  0.00000000E+00  0.00000000E+00  0.00000000E+00
  0.00000000E+00  0.00000000E+00  0.00000000E+00
  0.00000000E+00  0.00000000E+00  0.00000000E+00
  0.00000000E+00  0.00000000E+00  0.00000000E+00
  0.00000000E+00  0.00000000E+00  0.00000000E+00
  0.00000000E+00  0.00000000E+00  0.00000000E+00
  0.00000000E+00  0.00000000E+00  0.00000000E+00
  0.00000000E+00  0.00000000E+00  0.00000000E+00
  0.00000000E+00  0.00000000E+00  0.00000000E+00
  0.00000000E+00  0.00000000E+00  0.00000000E+00
  0.00000000E+00  0.00000000E+00  0.00000000E+00
  0.00000000E+00  0.00000000E+00  0.00000000E+00
