Cu Ru Cu O                              
   1.00000000000000     
     7.7216000556999997    0.0000000000000000    0.0000000000000000
     0.0000000000000000    7.7216000556999997    0.0000000000000000
     0.0000000000000000    0.0000000000000000   20.4599990845000015
   Cu   Ru   Cu   O 
    17     1    18     1
Selective dynamics
Direct
  0.0000000000000000  0.0000000000000000  0.0889500007054593   F   F   F
 -0.0003341841139894  0.0002672812284165  0.2670582145965154   T   T   T
  0.1666699946535033  0.1666699946535033  0.0000000000000000   F   F   F
  0.1666164182953082  0.1673339463733103  0.1747400129241418   T   T   T
  0.3333300053659229  0.0000000000000000  0.0889500007054593   F   F   F
  0.3333836599255176  0.9925986573304044  0.2677800020737409   T   T   T
  0.5000000000194262  0.1666699946535033  0.0000000000000000   F   F   F
  0.4970192425115265  0.1672146990132022  0.1789434664698613   T   T   T
  0.6666700243299957  0.0000000000000000  0.0889500007054593   F   F   F
  0.6671163409224696  0.0003675700984378  0.2646147809288197   T   T   T
  0.8333299755987795  0.1666699946535033  0.0000000000000000   F   F   F
  0.8337042586608667  0.1670580764867569  0.1786538156564262   T   T   T
  0.0000000000000000  0.3333300053659229  0.0889500007054593   F   F   F
  0.9908282272797798  0.3341203220395619  0.2678629634137749   T   T   T
  0.1666699946535033  0.5000000000194262  0.0000000000000000   F   F   F
  0.1664290390265254  0.4979473641548072  0.1788127689495044   T   T   T
  0.3333300053659229  0.3333300053659229  0.0889500007054593   F   F   F
  0.3363322721004789  0.3374190750754125  0.2696618063822457   T   T   T
  0.5000000000194262  0.5000000000194262  0.0000000000000000   F   F   F
  0.5000465022445240  0.5010128982585210  0.1766927010980423   T   T   T
  0.6666700243299957  0.3333300053659229  0.0889500007054593   F   F   F
  0.6647000923460834  0.3335054227519658  0.2648729201428466   T   T   T
  0.8333299755987795  0.5000000000194262  0.0000000000000000   F   F   F
  0.8341306318929744  0.4992559547069964  0.1792056202998714   T   T   T
  0.0000000000000000  0.6666700243299957  0.0889500007054593   F   F   F
 -0.0000807501313941  0.6678865329493903  0.2645455562313894   T   T   T
  0.1666699946535033  0.8333299755987795  0.0000000000000000   F   F   F
  0.1664020652061402  0.8346797108076912  0.1787082281762655   T   T   T
  0.3333300053659229  0.6666700243299957  0.0889500007054593   F   F   F
  0.3326787168092562  0.6662294937919470  0.2648271327373203   T   T   T
  0.5000000000194262  0.8333299755987795  0.0000000000000000   F   F   F
  0.4989607817810987  0.8345926732302884  0.1791242631627195   T   T   T
  0.6666700243299957  0.6666700243299957  0.0889500007054593   F   F   F
  0.6632409571082333  0.6637521124106693  0.2644518949355908   T   T   T
  0.8333299755987795  0.8333299755987795  0.0000000000000000   F   F   F
  0.8350598993812308  0.8355342951149368  0.1794541994168156   T   T   T
  0.1774255504492884  0.1809829494003066  0.3122193686535368   T   T   T
 
  0.00000000E+00  0.00000000E+00  0.00000000E+00
  0.00000000E+00  0.00000000E+00  0.00000000E+00
  0.00000000E+00  0.00000000E+00  0.00000000E+00
  0.00000000E+00  0.00000000E+00  0.00000000E+00
  0.00000000E+00  0.00000000E+00  0.00000000E+00
  0.00000000E+00  0.00000000E+00  0.00000000E+00
  0.00000000E+00  0.00000000E+00  0.00000000E+00
  0.00000000E+00  0.00000000E+00  0.00000000E+00
  0.00000000E+00  0.00000000E+00  0.00000000E+00
  0.00000000E+00  0.00000000E+00  0.00000000E+00
  0.00000000E+00  0.00000000E+00  0.00000000E+00
  0.00000000E+00  0.00000000E+00  0.00000000E+00
  0.00000000E+00  0.00000000E+00  0.00000000E+00
  0.00000000E+00  0.00000000E+00  0.00000000E+00
  0.00000000E+00  0.00000000E+00  0.00000000E+00
  0.00000000E+00  0.00000000E+00  0.00000000E+00
  0.00000000E+00  0.00000000E+00  0.00000000E+00
  0.00000000E+00  0.00000000E+00  0.00000000E+00
  0.00000000E+00  0.00000000E+00  0.00000000E+00
  0.00000000E+00  0.00000000E+00  0.00000000E+00
  0.00000000E+00  0.00000000E+00  0.00000000E+00
  0.00000000E+00  0.00000000E+00  0.00000000E+00
  0.00000000E+00  0.00000000E+00  0.00000000E+00
  0.00000000E+00  0.00000000E+00  0.00000000E+00
  0.00000000E+00  0.00000000E+00  0.00000000E+00
  0.00000000E+00  0.00000000E+00  0.00000000E+00
  0.00000000E+00  0.00000000E+00  0.00000000E+00
  0.00000000E+00  0.00000000E+00  0.00000000E+00
  0.00000000E+00  0.00000000E+00  0.00000000E+00
  0.00000000E+00  0.00000000E+00  0.00000000E+00
  0.00000000E+00  0.00000000E+00  0.00000000E+00
  0.00000000E+00  0.00000000E+00  0.00000000E+00
  0.00000000E+00  0.00000000E+00  0.00000000E+00
  0.00000000E+00  0.00000000E+00  0.00000000E+00
  0.00000000E+00  0.00000000E+00  0.00000000E+00
  0.00000000E+00  0.00000000E+00  0.00000000E+00
  0.00000000E+00  0.00000000E+00  0.00000000E+00
