Au Fe Au O                              
   1.00000000000000     
    12.5100002288999992    0.0000000000000000    0.0000000000000000
     0.0000000000000000    8.8458995818999995    0.0000000000000000
     0.0000000000000000    0.0000000000000000   19.4230003356999994
   Au   Fe   Au   O 
    17     1    18     1
Selective dynamics
Direct
     0.0000000000000000    0.0000000000000000    0.0759100019830612   F   F   F
     0.9948439988132712    0.9860813369757802    0.2269823614287735   T   T   T
     0.1791434345242526    0.1740553712781968    0.1588853323603570   T   T   T
     0.1666699946322368    0.1666699945381183    0.0000000000000000   F   F   F
     0.3333300054117316    0.0000000000000000    0.0759100019830612   F   F   F
     0.3370073997668666    0.9948624573077112    0.2233266482294336   T   T   T
     0.4967246886735156    0.1737922714156737    0.1639894535071630   T   T   T
     0.4999999999640323    0.1666699945381183    0.0000000000000000   F   F   F
     0.6666700244124115    0.0000000000000000    0.0759100019830612   F   F   F
     0.6669914740388437    0.0046467230334620    0.2227257780968726   T   T   T
     0.8364468402792256    0.1686659559511705    0.1566587794250016   T   T   T
     0.8333299756395505    0.1666699945381183    0.0000000000000000   F   F   F
     0.0000000000000000    0.3333300053544903    0.0759100019830612   F   F   F
     0.9913952229541945    0.3547780613435123    0.2280329290805546   T   T   T
     0.1667777662457608    0.5012325913805079    0.1582510605255656   T   T   T
     0.1666699946322368    0.5000000000056559    0.0000000000000000   F   F   F
     0.3333300054117316    0.3333300053544903    0.0759100019830612   F   F   F
     0.3353310315495747    0.3478748514581127    0.2101697100718173   T   T   T
     0.5013835549768698    0.4990140359260459    0.1604612632020553   T   T   T
     0.4999999999640323    0.5000000000056559    0.0000000000000000   F   F   F
     0.6666700244124115    0.3333300053544903    0.0759100019830612   F   F   F
     0.6711070162416550    0.3344802027506339    0.2238081430344095   T   T   T
     0.8327971217097692    0.5026687367535918    0.1562445057590547   T   T   T
     0.8333299756395505    0.5000000000056559    0.0000000000000000   F   F   F
     0.0000000000000000    0.6666700243881039    0.0759100019830612   F   F   F
     0.9979729845598053    0.6703083765702352    0.2231951001568711   T   T   T
     0.1673861157357190    0.8339570998998507    0.1566902560627967   T   T   T
     0.1666699946322368    0.8333299756288497    0.0000000000000000   F   F   F
     0.3333300054117316    0.6666700243881039    0.0759100019830612   F   F   F
     0.3335271568988353    0.6596514335699936    0.2230213848457645   T   T   T
     0.5016120588214233    0.8333186182753876    0.1573304021640525   T   T   T
     0.4999999999640323    0.8333299756288497    0.0000000000000000   F   F   F
     0.6666700244124115    0.6666700243881039    0.0759100019830612   F   F   F
     0.6677018164909064    0.6685334609777570    0.2236117327774901   T   T   T
     0.8331229970808576    0.8369569253422759    0.1571866477736289   T   T   T
     0.8333299756395505    0.8333299756288497    0.0000000000000000   F   F   F
     0.0884034302813316    0.1719342576056619    0.2604632040324592   T   T   T
 
  0.00000000E+00  0.00000000E+00  0.00000000E+00
  0.00000000E+00  0.00000000E+00  0.00000000E+00
  0.00000000E+00  0.00000000E+00  0.00000000E+00
  0.00000000E+00  0.00000000E+00  0.00000000E+00
  0.00000000E+00  0.00000000E+00  0.00000000E+00
  0.00000000E+00  0.00000000E+00  0.00000000E+00
  0.00000000E+00  0.00000000E+00  0.00000000E+00
  0.00000000E+00  0.00000000E+00  0.00000000E+00
  0.00000000E+00  0.00000000E+00  0.00000000E+00
  0.00000000E+00  0.00000000E+00  0.00000000E+00
  0.00000000E+00  0.00000000E+00  0.00000000E+00
  0.00000000E+00  0.00000000E+00  0.00000000E+00
  0.00000000E+00  0.00000000E+00  0.00000000E+00
  0.00000000E+00  0.00000000E+00  0.00000000E+00
  0.00000000E+00  0.00000000E+00  0.00000000E+00
  0.00000000E+00  0.00000000E+00  0.00000000E+00
  0.00000000E+00  0.00000000E+00  0.00000000E+00
  0.00000000E+00  0.00000000E+00  0.00000000E+00
  0.00000000E+00  0.00000000E+00  0.00000000E+00
  0.00000000E+00  0.00000000E+00  0.00000000E+00
  0.00000000E+00  0.00000000E+00  0.00000000E+00
  0.00000000E+00  0.00000000E+00  0.00000000E+00
  0.00000000E+00  0.00000000E+00  0.00000000E+00
  0.00000000E+00  0.00000000E+00  0.00000000E+00
  0.00000000E+00  0.00000000E+00  0.00000000E+00
  0.00000000E+00  0.00000000E+00  0.00000000E+00
  0.00000000E+00  0.00000000E+00  0.00000000E+00
  0.00000000E+00  0.00000000E+00  0.00000000E+00
  0.00000000E+00  0.00000000E+00  0.00000000E+00
  0.00000000E+00  0.00000000E+00  0.00000000E+00
  0.00000000E+00  0.00000000E+00  0.00000000E+00
  0.00000000E+00  0.00000000E+00  0.00000000E+00
  0.00000000E+00  0.00000000E+00  0.00000000E+00
  0.00000000E+00  0.00000000E+00  0.00000000E+00
  0.00000000E+00  0.00000000E+00  0.00000000E+00
  0.00000000E+00  0.00000000E+00  0.00000000E+00
  0.00000000E+00  0.00000000E+00  0.00000000E+00
