Rh O  C  H                              
   1.00000000000000     
     9.8156003952000006    0.0000000000000000    0.0000000000000000
     0.7550450558000000    8.5757254727000003    0.0000000000000000
     0.0000000000000000    0.0000000000000000   24.3218002318999993
   Rh   C    H    O 
    56     1     4     1
Selective dynamics
Direct
  0.2508300000000006  0.1677699999999973  0.0209100000000007   F   F   F
  0.7779600000000002  0.3150600000000026  0.0348400000000026   F   F   F
  0.3593600000000023  0.7569200000000009  0.0766500000000008   F   F   F
  0.4678800000000010  0.3460699999999974  0.1323999999999970   F   F   F
  0.0492800000000031  0.7879300000000029  0.1742100000000022   F   F   F
  0.1575457714502052  0.3750205740360342  0.2297045690439540   T   T   T
  0.8864900000000020  0.9042099999999991  0.0905899999999988   F   F   F
  0.9950199999999967  0.4933600000000027  0.1463400000000021   F   F   F
  0.5764100000000028  0.9352200000000011  0.1881500000000003   F   F   F
  0.6840041230551938  0.5250646471618139  0.2450841280660960   T   T   T
  0.7924386845977880  0.1171863640487638  0.3011390100635087   T   T   T
  0.2680528806331653  0.9684217291455570  0.2876772178770978   T   T   T
  0.3718645758098908  0.5521474415877063  0.3400584748106056   T   T   T
  0.9102591159468967  0.7002184861691914  0.3541633348192241   T   T   T
  0.0415300000000016  0.3887000000000000  0.0418099999999981   F   F   F
  0.9872599999999991  0.0941299999999998  0.0139399999999981   F   F   F
  0.4601299999999995  0.9468400000000017  0.0000000000000000   F   F   F
  0.5686600000000013  0.5359899999999982  0.0557500000000033   F   F   F
  0.6771900000000031  0.1251400000000018  0.1114999999999995   F   F   F
  0.1500600000000034  0.9778500000000037  0.0975600000000014   F   F   F
  0.2585800000000020  0.5670000000000002  0.1533099999999976   F   F   F
  0.3668284198256020  0.1547408597316693  0.2088035416476173   T   T   T
  0.0592399855743973  0.1888679790937882  0.3081433622029749   T   T   T
  0.7857100000000017  0.7142899999999983  0.1672399999999996   F   F   F
  0.8941688077587377  0.3051708856486794  0.2219294069482801   T   T   T
  0.4756543606097214  0.7458808093642401  0.2642251976848054   T   T   T
  0.5857207965573131  0.3369601854118239  0.3207880854843122   T   T   T
  0.1695162622164476  0.7769258197901829  0.3599644575104443   T   T   T
  0.7008853991632825  0.9189296437612812  0.3756421080596891   T   T   T
  0.7237000000000009  0.0204900000000023  0.0069700000000026   F   F   F
  0.3050899999999999  0.4623500000000007  0.0487800000000007   F   F   F
  0.4136200000000017  0.0514999999999972  0.1045299999999969   F   F   F
  0.1026789041943008  0.0832848016703484  0.2016187280121264   T   T   T
  0.8322300000000027  0.6096300000000028  0.0627199999999988   F   F   F
  0.9407500000000013  0.1987799999999993  0.1184599999999989   F   F   F
  0.5221500000000034  0.6406399999999977  0.1602800000000002   F   F   F
  0.6309432591702244  0.2294594858778388  0.2160400589725223   T   T   T
  0.2125186932758033  0.6707814033957959  0.2572258536578500   T   T   T
  0.3215930528521270  0.2615048505980357  0.3133813661252481   T   T   T
  0.7398182426192637  0.8200442618166457  0.2711549731519617   T   T   T
  0.8471473752312929  0.4122350558814382  0.3276226188493662   T   T   T
  0.4299524618712380  0.8456637356038113  0.3681320365250633   T   T   T
  0.9567210385729713  0.9933446345106399  0.3787645739632907   T   T   T
  0.5144000000000020  0.2414199999999980  0.0278700000000001   F   F   F
  0.0957900000000009  0.6832800000000034  0.0696900000000014   F   F   F
  0.2043200000000027  0.2724299999999999  0.1254300000000015   F   F   F
  0.6229200000000006  0.8305599999999984  0.0836200000000034   F   F   F
  0.7314500000000024  0.4197100000000020  0.1393699999999995   F   F   F
  0.8397514840205255  0.0107108379828090  0.1955724364954536   T   T   T
  0.3128499999999974  0.8615700000000004  0.1811799999999977   F   F   F
  0.4205517012106603  0.4493424161091876  0.2365953647729403   T   T   T
  0.5297442020558245  0.0437318071002610  0.2929369504680567   T   T   T
  0.0040549096567892  0.8945596765140650  0.2781577529124561   T   T   T
  0.1115866932308201  0.4803943153658790  0.3335177052365630   T   T   T
  0.9487506239624254  0.5967644689261641  0.2503591570450828   T   T   T
  0.6395516496391460  0.6250450959833547  0.3513071154087410   T   T   T
  0.3580977868785429  0.4851101896378524  0.4901794179138459   T   T   T
  0.3962856535851357  0.4043452144022320  0.5223474789473097   T   T   T
  0.2985454491185672  0.5847650855003050  0.5086036717738994   T   T   T
  0.2931878101109077  0.4255017488768532  0.4620795873141676   T   T   T
  0.4443256373321837  0.5259053737023648  0.4677153352803928   T   T   T
  0.5894363807552708  0.7711573506051478  0.4162993068000674   T   T   T
 
  0.00000000E+00  0.00000000E+00  0.00000000E+00
  0.00000000E+00  0.00000000E+00  0.00000000E+00
  0.00000000E+00  0.00000000E+00  0.00000000E+00
  0.00000000E+00  0.00000000E+00  0.00000000E+00
  0.00000000E+00  0.00000000E+00  0.00000000E+00
  0.00000000E+00  0.00000000E+00  0.00000000E+00
  0.00000000E+00  0.00000000E+00  0.00000000E+00
  0.00000000E+00  0.00000000E+00  0.00000000E+00
  0.00000000E+00  0.00000000E+00  0.00000000E+00
  0.00000000E+00  0.00000000E+00  0.00000000E+00
  0.00000000E+00  0.00000000E+00  0.00000000E+00
  0.00000000E+00  0.00000000E+00  0.00000000E+00
  0.00000000E+00  0.00000000E+00  0.00000000E+00
  0.00000000E+00  0.00000000E+00  0.00000000E+00
  0.00000000E+00  0.00000000E+00  0.00000000E+00
  0.00000000E+00  0.00000000E+00  0.00000000E+00
  0.00000000E+00  0.00000000E+00  0.00000000E+00
  0.00000000E+00  0.00000000E+00  0.00000000E+00
  0.00000000E+00  0.00000000E+00  0.00000000E+00
  0.00000000E+00  0.00000000E+00  0.00000000E+00
  0.00000000E+00  0.00000000E+00  0.00000000E+00
  0.00000000E+00  0.00000000E+00  0.00000000E+00
  0.00000000E+00  0.00000000E+00  0.00000000E+00
  0.00000000E+00  0.00000000E+00  0.00000000E+00
  0.00000000E+00  0.00000000E+00  0.00000000E+00
  0.00000000E+00  0.00000000E+00  0.00000000E+00
  0.00000000E+00  0.00000000E+00  0.00000000E+00
  0.00000000E+00  0.00000000E+00  0.00000000E+00
  0.00000000E+00  0.00000000E+00  0.00000000E+00
  0.00000000E+00  0.00000000E+00  0.00000000E+00
  0.00000000E+00  0.00000000E+00  0.00000000E+00
  0.00000000E+00  0.00000000E+00  0.00000000E+00
  0.00000000E+00  0.00000000E+00  0.00000000E+00
  0.00000000E+00  0.00000000E+00  0.00000000E+00
  0.00000000E+00  0.00000000E+00  0.00000000E+00
  0.00000000E+00  0.00000000E+00  0.00000000E+00
  0.00000000E+00  0.00000000E+00  0.00000000E+00
  0.00000000E+00  0.00000000E+00  0.00000000E+00
  0.00000000E+00  0.00000000E+00  0.00000000E+00
  0.00000000E+00  0.00000000E+00  0.00000000E+00
  0.00000000E+00  0.00000000E+00  0.00000000E+00
  0.00000000E+00  0.00000000E+00  0.00000000E+00
  0.00000000E+00  0.00000000E+00  0.00000000E+00
  0.00000000E+00  0.00000000E+00  0.00000000E+00
  0.00000000E+00  0.00000000E+00  0.00000000E+00
  0.00000000E+00  0.00000000E+00  0.00000000E+00
  0.00000000E+00  0.00000000E+00  0.00000000E+00
  0.00000000E+00  0.00000000E+00  0.00000000E+00
  0.00000000E+00  0.00000000E+00  0.00000000E+00
  0.00000000E+00  0.00000000E+00  0.00000000E+00
  0.00000000E+00  0.00000000E+00  0.00000000E+00
  0.00000000E+00  0.00000000E+00  0.00000000E+00
  0.00000000E+00  0.00000000E+00  0.00000000E+00
  0.00000000E+00  0.00000000E+00  0.00000000E+00
  0.00000000E+00  0.00000000E+00  0.00000000E+00
  0.00000000E+00  0.00000000E+00  0.00000000E+00
  0.00000000E+00  0.00000000E+00  0.00000000E+00
  0.00000000E+00  0.00000000E+00  0.00000000E+00
  0.00000000E+00  0.00000000E+00  0.00000000E+00
  0.00000000E+00  0.00000000E+00  0.00000000E+00
  0.00000000E+00  0.00000000E+00  0.00000000E+00
  0.00000000E+00  0.00000000E+00  0.00000000E+00
