Rh   C    H    O                        
   1.00000000000000     
     9.8156003952000006    0.0000000000000000    0.0000000000000000
     0.7550450558000000    8.5757254727000003    0.0000000000000000
     0.0000000000000000    0.0000000000000000   24.3218002318999993
   Rh   C    H    O 
    56     1     4     1
Selective dynamics
Direct
  0.2508300000000006  0.1677699999999973  0.0209100000000007   F   F   F
  0.7779600000000002  0.3150600000000026  0.0348400000000026   F   F   F
  0.3593600000000023  0.7569200000000009  0.0766500000000008   F   F   F
  0.4678800000000010  0.3460699999999974  0.1323999999999970   F   F   F
  0.0492800000000031  0.7879300000000029  0.1742100000000022   F   F   F
  0.1566295280995019  0.3741089656408251  0.2298296843729500   T   T   T
  0.8864900000000020  0.9042099999999991  0.0905899999999988   F   F   F
  0.9950199999999967  0.4933600000000027  0.1463400000000021   F   F   F
  0.5764100000000028  0.9352200000000011  0.1881500000000003   F   F   F
  0.6829390918743379  0.5237621601023602  0.2443528052585331   T   T   T
  0.7913613456208798  0.1139862172565627  0.3016048775136704   T   T   T
  0.2671413535520434  0.9665314021409882  0.2875183441012126   T   T   T
  0.3721388545499293  0.5518050188840998  0.3466878042248286   T   T   T
  0.9051107461099149  0.6996573833310380  0.3543544472041637   T   T   T
  0.0415300000000016  0.3887000000000000  0.0418099999999981   F   F   F
  0.9872599999999991  0.0941299999999998  0.0139399999999981   F   F   F
  0.4601299999999995  0.9468400000000017  0.0000000000000000   F   F   F
  0.5686600000000013  0.5359899999999982  0.0557500000000033   F   F   F
  0.6771900000000031  0.1251400000000018  0.1114999999999995   F   F   F
  0.1500600000000034  0.9778500000000037  0.0975600000000014   F   F   F
  0.2585800000000020  0.5670000000000002  0.1533099999999976   F   F   F
  0.3665225941141067  0.1556164365583623  0.2088035870966897   T   T   T
  0.0584105284456142  0.1868122509752805  0.3079373143463562   T   T   T
  0.7857100000000017  0.7142899999999983  0.1672399999999996   F   F   F
  0.8932040056613096  0.3027570769654583  0.2225708018920749   T   T   T
  0.4746377592611069  0.7435776144748468  0.2637113349886334   T   T   T
  0.5855641343888197  0.3334484558608918  0.3202997165318701   T   T   T
  0.1649673749121231  0.7766403907692464  0.3599837481021745   T   T   T
  0.6957393168684631  0.9213757482721205  0.3734121650436407   T   T   T
  0.7237000000000009  0.0204900000000023  0.0069700000000026   F   F   F
  0.3050899999999999  0.4623500000000007  0.0487800000000007   F   F   F
  0.4136200000000017  0.0514999999999972  0.1045299999999969   F   F   F
  0.1022186169912194  0.0826776316422985  0.2015102308962803   T   T   T
  0.8322300000000027  0.6096300000000028  0.0627199999999988   F   F   F
  0.9407500000000013  0.1987799999999993  0.1184599999999989   F   F   F
  0.5221500000000034  0.6406399999999977  0.1602800000000002   F   F   F
  0.6297998000979288  0.2295522162439552  0.2158318845978452   T   T   T
  0.2133278534054760  0.6686292495510033  0.2580118872833600   T   T   T
  0.3199027746710493  0.2602069563975503  0.3135330063565691   T   T   T
  0.7391174772445458  0.8177626205243003  0.2710573981593287   T   T   T
  0.8459350180477840  0.4093548998161648  0.3274231661419079   T   T   T
  0.4313075948390892  0.8494662838287476  0.3657595895327203   T   T   T
  0.9574874285820236  0.9911719165009587  0.3790954201191353   T   T   T
  0.5144000000000020  0.2414199999999980  0.0278700000000001   F   F   F
  0.0957900000000009  0.6832800000000034  0.0696900000000014   F   F   F
  0.2043200000000027  0.2724299999999999  0.1254300000000015   F   F   F
  0.6229200000000006  0.8305599999999984  0.0836200000000034   F   F   F
  0.7314500000000024  0.4197100000000020  0.1393699999999995   F   F   F
  0.8398307224205916  0.0093455717980783  0.1954611608253170   T   T   T
  0.3128499999999974  0.8615700000000004  0.1811799999999977   F   F   F
  0.4195213014913105  0.4492808257918741  0.2381248324938002   T   T   T
  0.5285153431686103  0.0420433795744397  0.2932695887789261   T   T   T
  0.0038467649737730  0.8923506069729914  0.2782458669142233   T   T   T
  0.1096509999669660  0.4804753387069724  0.3332921984658277   T   T   T
  0.9481317861163174  0.5952677297935016  0.2503023617139770   T   T   T
  0.6406117009097757  0.6256423765653183  0.3487799975522977   T   T   T
  0.3836755747471983  0.5081639592148549  0.4418436035417279   T   T   T
  0.4671853992865306  0.4351929923841026  0.4611042893116806   T   T   T
  0.3324748751528380  0.5902216917640910  0.4710898834296938   T   T   T
  0.3078564630736630  0.4303634096153213  0.4281146754575334   T   T   T
  0.4707246206042859  0.6155849724304215  0.4242852615542680   T   T   T
  0.5557786325466234  0.7191094188100050  0.4202703525633134   T   T   T
 
  0.00000000E+00  0.00000000E+00  0.00000000E+00
  0.00000000E+00  0.00000000E+00  0.00000000E+00
  0.00000000E+00  0.00000000E+00  0.00000000E+00
  0.00000000E+00  0.00000000E+00  0.00000000E+00
  0.00000000E+00  0.00000000E+00  0.00000000E+00
  0.00000000E+00  0.00000000E+00  0.00000000E+00
  0.00000000E+00  0.00000000E+00  0.00000000E+00
  0.00000000E+00  0.00000000E+00  0.00000000E+00
  0.00000000E+00  0.00000000E+00  0.00000000E+00
  0.00000000E+00  0.00000000E+00  0.00000000E+00
  0.00000000E+00  0.00000000E+00  0.00000000E+00
  0.00000000E+00  0.00000000E+00  0.00000000E+00
  0.00000000E+00  0.00000000E+00  0.00000000E+00
  0.00000000E+00  0.00000000E+00  0.00000000E+00
  0.00000000E+00  0.00000000E+00  0.00000000E+00
  0.00000000E+00  0.00000000E+00  0.00000000E+00
  0.00000000E+00  0.00000000E+00  0.00000000E+00
  0.00000000E+00  0.00000000E+00  0.00000000E+00
  0.00000000E+00  0.00000000E+00  0.00000000E+00
  0.00000000E+00  0.00000000E+00  0.00000000E+00
  0.00000000E+00  0.00000000E+00  0.00000000E+00
  0.00000000E+00  0.00000000E+00  0.00000000E+00
  0.00000000E+00  0.00000000E+00  0.00000000E+00
  0.00000000E+00  0.00000000E+00  0.00000000E+00
  0.00000000E+00  0.00000000E+00  0.00000000E+00
  0.00000000E+00  0.00000000E+00  0.00000000E+00
  0.00000000E+00  0.00000000E+00  0.00000000E+00
  0.00000000E+00  0.00000000E+00  0.00000000E+00
  0.00000000E+00  0.00000000E+00  0.00000000E+00
  0.00000000E+00  0.00000000E+00  0.00000000E+00
  0.00000000E+00  0.00000000E+00  0.00000000E+00
  0.00000000E+00  0.00000000E+00  0.00000000E+00
  0.00000000E+00  0.00000000E+00  0.00000000E+00
  0.00000000E+00  0.00000000E+00  0.00000000E+00
  0.00000000E+00  0.00000000E+00  0.00000000E+00
  0.00000000E+00  0.00000000E+00  0.00000000E+00
  0.00000000E+00  0.00000000E+00  0.00000000E+00
  0.00000000E+00  0.00000000E+00  0.00000000E+00
  0.00000000E+00  0.00000000E+00  0.00000000E+00
  0.00000000E+00  0.00000000E+00  0.00000000E+00
  0.00000000E+00  0.00000000E+00  0.00000000E+00
  0.00000000E+00  0.00000000E+00  0.00000000E+00
  0.00000000E+00  0.00000000E+00  0.00000000E+00
  0.00000000E+00  0.00000000E+00  0.00000000E+00
  0.00000000E+00  0.00000000E+00  0.00000000E+00
  0.00000000E+00  0.00000000E+00  0.00000000E+00
  0.00000000E+00  0.00000000E+00  0.00000000E+00
  0.00000000E+00  0.00000000E+00  0.00000000E+00
  0.00000000E+00  0.00000000E+00  0.00000000E+00
  0.00000000E+00  0.00000000E+00  0.00000000E+00
  0.00000000E+00  0.00000000E+00  0.00000000E+00
  0.00000000E+00  0.00000000E+00  0.00000000E+00
  0.00000000E+00  0.00000000E+00  0.00000000E+00
  0.00000000E+00  0.00000000E+00  0.00000000E+00
  0.00000000E+00  0.00000000E+00  0.00000000E+00
  0.00000000E+00  0.00000000E+00  0.00000000E+00
  0.00000000E+00  0.00000000E+00  0.00000000E+00
  0.00000000E+00  0.00000000E+00  0.00000000E+00
  0.00000000E+00  0.00000000E+00  0.00000000E+00
  0.00000000E+00  0.00000000E+00  0.00000000E+00
  0.00000000E+00  0.00000000E+00  0.00000000E+00
  0.00000000E+00  0.00000000E+00  0.00000000E+00
