Cu Ga Cu O  C  H                        
   1.00000000000000     
    10.9200000762999991    0.0000000000000000    0.0000000000000000
     0.0000000000000000    7.7216000556999997    0.0000000000000000
     0.0000000000000000    0.0000000000000000   18.8607997894000015
   Cu   Ga   Cu   O    C    H 
    16     1    19     1     1     4
Selective dynamics
Direct
     0.9992691429145173    0.9965442941473746    0.2009971779465171   T   T   T
     0.1692594628589790    0.1687805144287743    0.1402758558098254   T   T   T
     0.1666699946229926    0.1666699946535033    0.0000000000000000   F   F   F
     0.0000000000000000    0.0000000000000000    0.0682300030947403   F   F   F
     0.3298927182935774    0.0005823150943416    0.2024864437992797   T   T   T
     0.4982074114740507    0.1677322492261117    0.1383010193442238   T   T   T
     0.4999999999862652    0.1666699946535033    0.0000000000000000   F   F   F
     0.3333300053632726    0.0000000000000000    0.0682300030947403   F   F   F
     0.6652639268121580    0.0020761515961049    0.2021964391354605   T   T   T
     0.8340776578438821    0.1662644936497069    0.1385994591157654   T   T   T
     0.8333299755876311    0.1666699946535033    0.0000000000000000   F   F   F
     0.6666700243711574    0.0000000000000000    0.0682300030947403   F   F   F
     0.9931424663977220    0.3362506094107713    0.2065492498461046   T   T   T
     0.1696534677805709    0.4971346979710634    0.1398546383032578   T   T   T
     0.1666699946229926    0.5000000000194262    0.0000000000000000   F   F   F
     0.0000000000000000    0.3333300053659229    0.0682300030947403   F   F   F
     0.2463336555613517    0.2677488298385823    0.2617360114325540   T   T   T
     0.4977124450118396    0.4984510856223039    0.1382397673112027   T   T   T
     0.4999999999862652    0.5000000000194262    0.0000000000000000   F   F   F
     0.3333300053632726    0.3333300053659229    0.0682300030947403   F   F   F
     0.6670524663373549    0.3324988343975995    0.2016489932520704   T   T   T
     0.8334793532394571    0.5000309216112171    0.1388445705848952   T   T   T
     0.8333299755876311    0.5000000000194262    0.0000000000000000   F   F   F
     0.6666700243711574    0.3333300053659229    0.0682300030947403   F   F   F
     0.0002726421271956    0.6683911532967239    0.2007489971016112   T   T   T
     0.1660272758304761    0.8311572713680491    0.1383416342776733   T   T   T
     0.1666699946229926    0.8333299755987795    0.0000000000000000   F   F   F
     0.0000000000000000    0.6666700243299957    0.0682300030947403   F   F   F
     0.3334561538239977    0.6713598432881610    0.2010431510531573   T   T   T
     0.4988707779045987    0.8350866880235324    0.1400768080932864   T   T   T
     0.4999999999862652    0.8333299755987795    0.0000000000000000   F   F   F
     0.3333300053632726    0.6666700243299957    0.0682300030947403   F   F   F
     0.6640814643098940    0.6653450895785336    0.2013279083229779   T   T   T
     0.8311605942079918    0.8331234738736146    0.1396828298510491   T   T   T
     0.8333299755876311    0.8333299755987795    0.0000000000000000   F   F   F
     0.6666700243711574    0.6666700243299957    0.0682300030947403   F   F   F
     0.0797547012695373    0.2880424270562202    0.3007409286097902   T   T   T
     0.3588570230003000    0.3683795575726937    0.3354075648432049   T   T   T
     0.4512462154298029    0.3828513184887324    0.3141803342354672   T   T   T
     0.3257265043011127    0.4935863143668540    0.3547723591916103   T   T   T
     0.3613494492370311    0.2767557034109152    0.3798174195928687   T   T   T
     0.0696326092373483    0.3699179679129254    0.3392907188589778   T   T   T
 
  0.00000000E+00  0.00000000E+00  0.00000000E+00
  0.00000000E+00  0.00000000E+00  0.00000000E+00
  0.00000000E+00  0.00000000E+00  0.00000000E+00
  0.00000000E+00  0.00000000E+00  0.00000000E+00
  0.00000000E+00  0.00000000E+00  0.00000000E+00
  0.00000000E+00  0.00000000E+00  0.00000000E+00
  0.00000000E+00  0.00000000E+00  0.00000000E+00
  0.00000000E+00  0.00000000E+00  0.00000000E+00
  0.00000000E+00  0.00000000E+00  0.00000000E+00
  0.00000000E+00  0.00000000E+00  0.00000000E+00
  0.00000000E+00  0.00000000E+00  0.00000000E+00
  0.00000000E+00  0.00000000E+00  0.00000000E+00
  0.00000000E+00  0.00000000E+00  0.00000000E+00
  0.00000000E+00  0.00000000E+00  0.00000000E+00
  0.00000000E+00  0.00000000E+00  0.00000000E+00
  0.00000000E+00  0.00000000E+00  0.00000000E+00
  0.00000000E+00  0.00000000E+00  0.00000000E+00
  0.00000000E+00  0.00000000E+00  0.00000000E+00
  0.00000000E+00  0.00000000E+00  0.00000000E+00
  0.00000000E+00  0.00000000E+00  0.00000000E+00
  0.00000000E+00  0.00000000E+00  0.00000000E+00
  0.00000000E+00  0.00000000E+00  0.00000000E+00
  0.00000000E+00  0.00000000E+00  0.00000000E+00
  0.00000000E+00  0.00000000E+00  0.00000000E+00
  0.00000000E+00  0.00000000E+00  0.00000000E+00
  0.00000000E+00  0.00000000E+00  0.00000000E+00
  0.00000000E+00  0.00000000E+00  0.00000000E+00
  0.00000000E+00  0.00000000E+00  0.00000000E+00
  0.00000000E+00  0.00000000E+00  0.00000000E+00
  0.00000000E+00  0.00000000E+00  0.00000000E+00
  0.00000000E+00  0.00000000E+00  0.00000000E+00
  0.00000000E+00  0.00000000E+00  0.00000000E+00
  0.00000000E+00  0.00000000E+00  0.00000000E+00
  0.00000000E+00  0.00000000E+00  0.00000000E+00
  0.00000000E+00  0.00000000E+00  0.00000000E+00
  0.00000000E+00  0.00000000E+00  0.00000000E+00
  0.00000000E+00  0.00000000E+00  0.00000000E+00
  0.00000000E+00  0.00000000E+00  0.00000000E+00
  0.00000000E+00  0.00000000E+00  0.00000000E+00
  0.00000000E+00  0.00000000E+00  0.00000000E+00
  0.00000000E+00  0.00000000E+00  0.00000000E+00
  0.00000000E+00  0.00000000E+00  0.00000000E+00
