Au Zn Au O  C  H                        
   1.00000000000000     
     8.8458995818999995    0.0000000000000000    0.0000000000000000
     0.0000000000000000    8.8458995818999995    0.0000000000000000
     0.0000000000000000    0.0000000000000000   21.2549991608000006
   Au   Zn   Au   O    C    H 
    17     1    18     1     1     4
Selective dynamics
Direct
     0.0000000000000000    0.0000000000000000    0.0980900004383471   F   F   F
     0.9989152812169907    0.0002467890224936    0.2999289045738202   T   T   T
     0.1666699945381183    0.1666699945381183    0.0000000000000000   F   F   F
     0.1664356713858977    0.1649607018866479    0.1997593117342793   T   T   T
     0.3333300053544903    0.0000000000000000    0.0980900004383471   F   F   F
     0.3178227756419914    0.0168090477447962    0.3045844285554772   T   T   T
     0.5000000000056559    0.1666699945381183    0.0000000000000000   F   F   F
     0.5000560351366730    0.1647101921426381    0.2002933111313296   T   T   T
     0.6666700243881039    0.0000000000000000    0.0980900004383471   F   F   F
     0.6811015447108323    0.9977396159856901    0.3068174382992517   T   T   T
     0.8333299756288497    0.1666699945381183    0.0000000000000000   F   F   F
     0.8319069232794288    0.1645620258136969    0.1997877662016690   T   T   T
     0.0000000000000000    0.3333300053544903    0.0980900004383471   F   F   F
     0.0065560873723128    0.3353445497103741    0.3001405779795534   T   T   T
     0.1666699945381183    0.5000000000056559    0.0000000000000000   F   F   F
     0.1651663144254135    0.4999779323930322    0.1983988019766222   T   T   T
     0.3333300053544903    0.3333300053544903    0.0980900004383471   F   F   F
     0.3301771759054263    0.3344763711869790    0.2881189962943289   T   T   T
     0.5000000000056559    0.5000000000056559    0.0000000000000000   F   F   F
     0.5000627419443695    0.4983421010944049    0.1993061016404946   T   T   T
     0.6666700243881039    0.3333300053544903    0.0980900004383471   F   F   F
     0.6659927878082939    0.3357420055523579    0.2979405779318569   T   T   T
     0.8333299756288497    0.5000000000056559    0.0000000000000000   F   F   F
     0.8340762444188712    0.5005484171792638    0.1988590016453927   T   T   T
     0.0000000000000000    0.6666700243881039    0.0980900004383471   F   F   F
     0.0011807402822393    0.6647175256966944    0.3009805477236155   T   T   T
     0.1666699945381183    0.8333299756288497    0.0000000000000000   F   F   F
     0.1685777144433361    0.8346185586142123    0.2009878935917849   T   T   T
     0.3333300053544903    0.6666700243881039    0.0980900004383471   F   F   F
     0.3330031838870754    0.6529436394853732    0.2985039329906600   T   T   T
     0.5000000000056559    0.8333299756288497    0.0000000000000000   F   F   F
     0.4995627319027163    0.8349698800760829    0.2004736365921150   T   T   T
     0.6666700243881039    0.6666700243881039    0.0980900004383471   F   F   F
     0.6668131769826930    0.6624946565006069    0.3000285380880476   T   T   T
     0.8333299756288497    0.8333299756288497    0.0000000000000000   F   F   F
     0.8324317837020406    0.8347480498816122    0.2008105836663343   T   T   T
     0.4966372561279921    0.0054327437485424    0.3672060854270182   T   T   T
     0.3365586997945578    0.3415741602544716    0.4578444838195831   T   T   T
     0.2872401720775948    0.4263291476469032    0.4265894312830771   T   T   T
     0.2465684178274262    0.2886692800318021    0.4851402993781333   T   T   T
     0.4158567897284884    0.3969717474721112    0.4896140062781386   T   T   T
     0.3956001224656016    0.2548867085867759    0.4308261183817916   T   T   T
 
  0.00000000E+00  0.00000000E+00  0.00000000E+00
  0.00000000E+00  0.00000000E+00  0.00000000E+00
  0.00000000E+00  0.00000000E+00  0.00000000E+00
  0.00000000E+00  0.00000000E+00  0.00000000E+00
  0.00000000E+00  0.00000000E+00  0.00000000E+00
  0.00000000E+00  0.00000000E+00  0.00000000E+00
  0.00000000E+00  0.00000000E+00  0.00000000E+00
  0.00000000E+00  0.00000000E+00  0.00000000E+00
  0.00000000E+00  0.00000000E+00  0.00000000E+00
  0.00000000E+00  0.00000000E+00  0.00000000E+00
  0.00000000E+00  0.00000000E+00  0.00000000E+00
  0.00000000E+00  0.00000000E+00  0.00000000E+00
  0.00000000E+00  0.00000000E+00  0.00000000E+00
  0.00000000E+00  0.00000000E+00  0.00000000E+00
  0.00000000E+00  0.00000000E+00  0.00000000E+00
  0.00000000E+00  0.00000000E+00  0.00000000E+00
  0.00000000E+00  0.00000000E+00  0.00000000E+00
  0.00000000E+00  0.00000000E+00  0.00000000E+00
  0.00000000E+00  0.00000000E+00  0.00000000E+00
  0.00000000E+00  0.00000000E+00  0.00000000E+00
  0.00000000E+00  0.00000000E+00  0.00000000E+00
  0.00000000E+00  0.00000000E+00  0.00000000E+00
  0.00000000E+00  0.00000000E+00  0.00000000E+00
  0.00000000E+00  0.00000000E+00  0.00000000E+00
  0.00000000E+00  0.00000000E+00  0.00000000E+00
  0.00000000E+00  0.00000000E+00  0.00000000E+00
  0.00000000E+00  0.00000000E+00  0.00000000E+00
  0.00000000E+00  0.00000000E+00  0.00000000E+00
  0.00000000E+00  0.00000000E+00  0.00000000E+00
  0.00000000E+00  0.00000000E+00  0.00000000E+00
  0.00000000E+00  0.00000000E+00  0.00000000E+00
  0.00000000E+00  0.00000000E+00  0.00000000E+00
  0.00000000E+00  0.00000000E+00  0.00000000E+00
  0.00000000E+00  0.00000000E+00  0.00000000E+00
  0.00000000E+00  0.00000000E+00  0.00000000E+00
  0.00000000E+00  0.00000000E+00  0.00000000E+00
  0.00000000E+00  0.00000000E+00  0.00000000E+00
  0.00000000E+00  0.00000000E+00  0.00000000E+00
  0.00000000E+00  0.00000000E+00  0.00000000E+00
  0.00000000E+00  0.00000000E+00  0.00000000E+00
  0.00000000E+00  0.00000000E+00  0.00000000E+00
  0.00000000E+00  0.00000000E+00  0.00000000E+00
