Au Ga Au O                              
   1.00000000000000     
     8.8458995818999995    0.0000000000000000    0.0000000000000000
     0.0000000000000000    8.8458995818999995    0.0000000000000000
     0.0000000000000000    0.0000000000000000   21.2549991608000006
   Au   Ga   Au   O 
    17     1    18     1
Selective dynamics
Direct
     0.0000000000000000    0.0000000000000000    0.0980900004383471   F   F   F
     0.0099768053077967    0.9990990167626340    0.2924236138928595   T   T   T
     0.1666699945381183    0.1666699945381183    0.0000000000000000   F   F   F
     0.1765342571008073    0.1719985432327936    0.1988978020619697   T   T   T
     0.3333300053544903    0.0000000000000000    0.0980900004383471   F   F   F
     0.3496323232664981    0.9983843373991911    0.2942238217785796   T   T   T
     0.5000000000056559    0.1666699945381183    0.0000000000000000   F   F   F
     0.5028056449388530    0.1638187457634171    0.1934171233588897   T   T   T
     0.6666700243881039    0.0000000000000000    0.0980900004383471   F   F   F
     0.6829657749197566    0.9837126533847865    0.2917881493825094   T   T   T
     0.8333299756288497    0.1666699945381183    0.0000000000000000   F   F   F
     0.8375009747786365    0.1631779556406391    0.1957848351013475   T   T   T
     0.0000000000000000    0.3333300053544903    0.0980900004383471   F   F   F
     0.9955418503405195    0.3344216181532881    0.2937669089049968   T   T   T
     0.1666699945381183    0.5000000000056559    0.0000000000000000   F   F   F
     0.1664805090328260    0.5001776710606110    0.1948302288705799   T   T   T
     0.3333300053544903    0.3333300053544903    0.0980900004383471   F   F   F
     0.2880151769414501    0.3786392508280786    0.3054064157115492   T   T   T
     0.5000000000056559    0.5000000000056559    0.0000000000000000   F   F   F
     0.4946806298927071    0.4900863354383192    0.1988922857752985   T   T   T
     0.6666700243881039    0.3333300053544903    0.0980900004383471   F   F   F
     0.6682753228336243    0.3170522186757502    0.2942167601651773   T   T   T
     0.8333299756288497    0.5000000000056559    0.0000000000000000   F   F   F
     0.8282932128506609    0.4940075590466809    0.1968601181714845   T   T   T
     0.0000000000000000    0.6666700243881039    0.0980900004383471   F   F   F
     0.9978594986323460    0.6688301298180857    0.2927086350230800   T   T   T
     0.1666699945381183    0.8333299756288497    0.0000000000000000   F   F   F
     0.1726573734635066    0.8383726163559744    0.1968622475383105   T   T   T
     0.3333300053544903    0.6666700243881039    0.0980900004383471   F   F   F
     0.3322777428178935    0.6711020426901940    0.2937497859181269   T   T   T
     0.5000000000056559    0.8333299756288497    0.0000000000000000   F   F   F
     0.5034922403370503    0.8291624192751084    0.1957780958277986   T   T   T
     0.6666700243881039    0.6666700243881039    0.0980900004383471   F   F   F
     0.6675640303107983    0.6566904192447663    0.2924190215740955   T   T   T
     0.8333299756288497    0.8333299756288497    0.0000000000000000   F   F   F
     0.8385578524911956    0.8281266297837540    0.1943317933988345   T   T   T
     0.4263933885417761    0.2402633913137415    0.3304797781352281   T   T   T
 
  0.00000000E+00  0.00000000E+00  0.00000000E+00
  0.00000000E+00  0.00000000E+00  0.00000000E+00
  0.00000000E+00  0.00000000E+00  0.00000000E+00
  0.00000000E+00  0.00000000E+00  0.00000000E+00
  0.00000000E+00  0.00000000E+00  0.00000000E+00
  0.00000000E+00  0.00000000E+00  0.00000000E+00
  0.00000000E+00  0.00000000E+00  0.00000000E+00
  0.00000000E+00  0.00000000E+00  0.00000000E+00
  0.00000000E+00  0.00000000E+00  0.00000000E+00
  0.00000000E+00  0.00000000E+00  0.00000000E+00
  0.00000000E+00  0.00000000E+00  0.00000000E+00
  0.00000000E+00  0.00000000E+00  0.00000000E+00
  0.00000000E+00  0.00000000E+00  0.00000000E+00
  0.00000000E+00  0.00000000E+00  0.00000000E+00
  0.00000000E+00  0.00000000E+00  0.00000000E+00
  0.00000000E+00  0.00000000E+00  0.00000000E+00
  0.00000000E+00  0.00000000E+00  0.00000000E+00
  0.00000000E+00  0.00000000E+00  0.00000000E+00
  0.00000000E+00  0.00000000E+00  0.00000000E+00
  0.00000000E+00  0.00000000E+00  0.00000000E+00
  0.00000000E+00  0.00000000E+00  0.00000000E+00
  0.00000000E+00  0.00000000E+00  0.00000000E+00
  0.00000000E+00  0.00000000E+00  0.00000000E+00
  0.00000000E+00  0.00000000E+00  0.00000000E+00
  0.00000000E+00  0.00000000E+00  0.00000000E+00
  0.00000000E+00  0.00000000E+00  0.00000000E+00
  0.00000000E+00  0.00000000E+00  0.00000000E+00
  0.00000000E+00  0.00000000E+00  0.00000000E+00
  0.00000000E+00  0.00000000E+00  0.00000000E+00
  0.00000000E+00  0.00000000E+00  0.00000000E+00
  0.00000000E+00  0.00000000E+00  0.00000000E+00
  0.00000000E+00  0.00000000E+00  0.00000000E+00
  0.00000000E+00  0.00000000E+00  0.00000000E+00
  0.00000000E+00  0.00000000E+00  0.00000000E+00
  0.00000000E+00  0.00000000E+00  0.00000000E+00
  0.00000000E+00  0.00000000E+00  0.00000000E+00
  0.00000000E+00  0.00000000E+00  0.00000000E+00
