Cu Sc Cu O  C  H                        
   1.00000000000000     
     6.3046998978000000    0.0000000000000000    0.0000000000000000
     0.0000000000000000    7.7216000556999997    0.0000000000000000
     0.0000000000000000    0.0000000000000000   25.4022006988999998
   Cu   Sc   Cu   O    C    H 
    19     1    25     1     1     4
Selective dynamics
Direct
  0.0000000000000000  0.0000000000000000  0.0000000000000000   F   F   F
  0.3333299999999966  0.0000000000000000  0.1169999999999973   F   F   F
  0.6642864453835620  0.0014321210454897  0.2342629414976820   T   T   T
  0.9954409647391512  0.0009491717389023  0.3535719177698357   T   T   T
  0.6615137874790507  0.9908547937036147  0.4055055972631056   T   T   T
  0.6666700000000034  0.0000000000000000  0.0585000000000022   F   F   F
 -0.0004061426564817  0.9994035728113083  0.1759013860739652   T   T   T
  0.3291549497532881  0.0031324613004041  0.2943922762265072   T   T   T
  0.3333299999999966  0.1666700000000034  0.0292499999999976   F   F   F
  0.6666700000000034  0.1666700000000034  0.1462500000000020   F   F   F
  0.9952351096640418  0.1665015312619575  0.2635808856888918   T   T   T
  0.3228714042747852  0.1617173268283166  0.3828797948743742   T   T   T
  0.0000000000000000  0.1666700000000034  0.0877499999999998   F   F   F
  0.3309571025953649  0.1665843737477505  0.2055994465347463   T   T   T
  0.6643426945509889  0.1708576143344548  0.3252865848357400   T   T   T
  0.0000000000000000  0.3333299999999966  0.0000000000000000   F   F   F
  0.3333299999999966  0.3333299999999966  0.1169999999999973   F   F   F
  0.6623626618138503  0.3333271901684493  0.2352795864330113   T   T   T
 -0.0045936697015069  0.3333237840740601  0.3519967997523255   T   T   T
  0.6906547209023149  0.3330918220062559  0.4396288847571994   T   T   T
  0.6666700000000034  0.3333299999999966  0.0585000000000022   F   F   F
  0.9987208434588531  0.3333619978556383  0.1757130535377123   T   T   T
  0.3294828516778230  0.3333368934052940  0.2947826324428812   T   T   T
  0.3333299999999966  0.5000000000000000  0.0292499999999976   F   F   F
  0.6666700000000034  0.5000000000000000  0.1462500000000020   F   F   F
  0.9955011600778029  0.5001682099224428  0.2636473012244669   T   T   T
  0.3230411559733594  0.5048264994279462  0.3828643303850502   T   T   T
  0.0000000000000000  0.5000000000000000  0.0877499999999998   F   F   F
  0.3310176853784688  0.4996630349040344  0.2055556822033382   T   T   T
  0.6643738290690441  0.4960361087501162  0.3252638358473944   T   T   T
  0.0000000000000000  0.6666700000000034  0.0000000000000000   F   F   F
  0.3333299999999966  0.6666700000000034  0.1169999999999973   F   F   F
  0.6641241355856610  0.6648348761343780  0.2343006622517377   T   T   T
  0.9956180864650640  0.6657224040541636  0.3537317408489341   T   T   T
  0.6618788042990327  0.6755046838431963  0.4056123011498355   T   T   T
  0.6666700000000034  0.6666700000000034  0.0585000000000022   F   F   F
 -0.0004472393684983  0.6671066992135257  0.1757682708987743   T   T   T
  0.3289733854198701  0.6637301574927696  0.2944373402367590   T   T   T
  0.3333299999999966  0.8333299999999966  0.0292499999999976   F   F   F
  0.6666700000000034  0.8333299999999966  0.1462500000000020   F   F   F
  0.9984937187171113  0.8332710081945889  0.2637471740260330   T   T   T
  0.3254679607032752  0.8331754239404219  0.3812495247364165   T   T   T
  0.0000000000000000  0.8333299999999966  0.0877499999999998   F   F   F
  0.3320925635032790  0.8331454265721261  0.2062462530859191   T   T   T
  0.6662067438323606  0.8333307311786015  0.3196749454770970   T   T   T
  0.3806295091342652  0.3331708034158730  0.4532356250676809   T   T   T
  0.8321383462317523  0.3324970058126467  0.5185592606652185   T   T   T
  0.0036941363408825  0.3326685948236293  0.5256502503431612   T   T   T
  0.7676505289605592  0.4469242251533656  0.5389313507573195   T   T   T
  0.7677895833696383  0.2183180451979639  0.5390417186395370   T   T   T
  0.2704261496278634  0.3323296308836641  0.4796670036927835   T   T   T
 
  0.00000000E+00  0.00000000E+00  0.00000000E+00
  0.00000000E+00  0.00000000E+00  0.00000000E+00
  0.00000000E+00  0.00000000E+00  0.00000000E+00
  0.00000000E+00  0.00000000E+00  0.00000000E+00
  0.00000000E+00  0.00000000E+00  0.00000000E+00
  0.00000000E+00  0.00000000E+00  0.00000000E+00
  0.00000000E+00  0.00000000E+00  0.00000000E+00
  0.00000000E+00  0.00000000E+00  0.00000000E+00
  0.00000000E+00  0.00000000E+00  0.00000000E+00
  0.00000000E+00  0.00000000E+00  0.00000000E+00
  0.00000000E+00  0.00000000E+00  0.00000000E+00
  0.00000000E+00  0.00000000E+00  0.00000000E+00
  0.00000000E+00  0.00000000E+00  0.00000000E+00
  0.00000000E+00  0.00000000E+00  0.00000000E+00
  0.00000000E+00  0.00000000E+00  0.00000000E+00
  0.00000000E+00  0.00000000E+00  0.00000000E+00
  0.00000000E+00  0.00000000E+00  0.00000000E+00
  0.00000000E+00  0.00000000E+00  0.00000000E+00
  0.00000000E+00  0.00000000E+00  0.00000000E+00
  0.00000000E+00  0.00000000E+00  0.00000000E+00
  0.00000000E+00  0.00000000E+00  0.00000000E+00
  0.00000000E+00  0.00000000E+00  0.00000000E+00
  0.00000000E+00  0.00000000E+00  0.00000000E+00
  0.00000000E+00  0.00000000E+00  0.00000000E+00
  0.00000000E+00  0.00000000E+00  0.00000000E+00
  0.00000000E+00  0.00000000E+00  0.00000000E+00
  0.00000000E+00  0.00000000E+00  0.00000000E+00
  0.00000000E+00  0.00000000E+00  0.00000000E+00
  0.00000000E+00  0.00000000E+00  0.00000000E+00
  0.00000000E+00  0.00000000E+00  0.00000000E+00
  0.00000000E+00  0.00000000E+00  0.00000000E+00
  0.00000000E+00  0.00000000E+00  0.00000000E+00
  0.00000000E+00  0.00000000E+00  0.00000000E+00
  0.00000000E+00  0.00000000E+00  0.00000000E+00
  0.00000000E+00  0.00000000E+00  0.00000000E+00
  0.00000000E+00  0.00000000E+00  0.00000000E+00
  0.00000000E+00  0.00000000E+00  0.00000000E+00
  0.00000000E+00  0.00000000E+00  0.00000000E+00
  0.00000000E+00  0.00000000E+00  0.00000000E+00
  0.00000000E+00  0.00000000E+00  0.00000000E+00
  0.00000000E+00  0.00000000E+00  0.00000000E+00
  0.00000000E+00  0.00000000E+00  0.00000000E+00
  0.00000000E+00  0.00000000E+00  0.00000000E+00
  0.00000000E+00  0.00000000E+00  0.00000000E+00
  0.00000000E+00  0.00000000E+00  0.00000000E+00
  0.00000000E+00  0.00000000E+00  0.00000000E+00
  0.00000000E+00  0.00000000E+00  0.00000000E+00
  0.00000000E+00  0.00000000E+00  0.00000000E+00
  0.00000000E+00  0.00000000E+00  0.00000000E+00
  0.00000000E+00  0.00000000E+00  0.00000000E+00
  0.00000000E+00  0.00000000E+00  0.00000000E+00
