Cu Ga Cu O  C  H                        
   1.00000000000000     
     7.7216000556999997    0.0000000000000000    0.0000000000000000
     0.0000000000000000    7.7216000556999997    0.0000000000000000
     0.0000000000000000    0.0000000000000000   20.4599990845000015
   Cu   Ga   Cu   O    C    H 
    17     1    18     1     1     4
Selective dynamics
Direct
     0.0000000000000000    0.0000000000000000    0.0889500007054593   F   F   F
     0.9766959970710301    0.9767120968748907    0.2709312018695181   T   T   T
     0.1666699946535033    0.1666699946535033    0.0000000000000000   F   F   F
     0.1649839693247895    0.1650522241202259    0.1778481947519933   T   T   T
     0.3333300053659229    0.0000000000000000    0.0889500007054593   F   F   F
     0.3262070123278576    0.0105825580320250    0.2716556827217088   T   T   T
     0.5000000000194262    0.1666699946535033    0.0000000000000000   F   F   F
     0.4929185465837198    0.1753148026898873    0.1832173967105155   T   T   T
     0.6666700243299957    0.0000000000000000    0.0889500007054593   F   F   F
     0.6528439454719460    0.9992865947425874    0.2674720148012336   T   T   T
     0.8333299755987795    0.1666699946535033    0.0000000000000000   F   F   F
     0.8344698463927429    0.1619553078170912    0.1794816581014375   T   T   T
     0.0000000000000000    0.3333300053659229    0.0889500007054593   F   F   F
     0.0103162028386610    0.3262570512750474    0.2716293782345532   T   T   T
     0.1666699946535033    0.5000000000194262    0.0000000000000000   F   F   F
     0.1753287555825044    0.4929670474030554    0.1832392033278994   T   T   T
     0.3333300053659229    0.3333300053659229    0.0889500007054593   F   F   F
     0.3635194884361838    0.3637071870834352    0.2914886481666210   T   T   T
     0.5000000000194262    0.5000000000194262    0.0000000000000000   F   F   F
     0.5041316134198593    0.5041436444530212    0.1813505139383562   T   T   T
     0.6666700243299957    0.3333300053659229    0.0889500007054593   F   F   F
     0.6847743143008214    0.3339292314457537    0.2667540710736840   T   T   T
     0.8333299755987795    0.5000000000194262    0.0000000000000000   F   F   F
     0.8404580167877059    0.4944537458321208    0.1794168429798192   T   T   T
     0.0000000000000000    0.6666700243299957    0.0889500007054593   F   F   F
     0.9993711137625826    0.6529216819486847    0.2674676727428584   T   T   T
     0.1666699946535033    0.8333299755987795    0.0000000000000000   F   F   F
     0.1620179406744589    0.8345693909993942    0.1794880955649121   T   T   T
     0.3333300053659229    0.6666700243299957    0.0889500007054593   F   F   F
     0.3340451242349420    0.6850840791393995    0.2667608573347039   T   T   T
     0.5000000000194262    0.8333299755987795    0.0000000000000000   F   F   F
     0.4945206582285384    0.8404728522686844    0.1793869823150987   T   T   T
     0.6666700243299957    0.6666700243299957    0.0889500007054593   F   F   F
     0.6693452210172357    0.6692882285918509    0.2684249448704841   T   T   T
     0.8333299755987795    0.8333299755987795    0.0000000000000000   F   F   F
     0.8309302666142466    0.8308846274636595    0.1791287270147181   T   T   T
     0.1226168555262823    0.1228345122804380    0.3315589508225346   T   T   T
     0.3773776308350275    0.3778195852823199    0.3911340351073411   T   T   T
     0.4733831177750092    0.4744841048193779    0.4055286623450674   T   T   T
     0.2507201835242479    0.4146349830477907    0.4104597122290301   T   T   T
     0.4148591272503409    0.2515380574183531    0.4104922177153140   T   T   T
     0.1092000692686097    0.1095577711315318    0.3784135588003266   T   T   T
 
  0.00000000E+00  0.00000000E+00  0.00000000E+00
  0.00000000E+00  0.00000000E+00  0.00000000E+00
  0.00000000E+00  0.00000000E+00  0.00000000E+00
  0.00000000E+00  0.00000000E+00  0.00000000E+00
  0.00000000E+00  0.00000000E+00  0.00000000E+00
  0.00000000E+00  0.00000000E+00  0.00000000E+00
  0.00000000E+00  0.00000000E+00  0.00000000E+00
  0.00000000E+00  0.00000000E+00  0.00000000E+00
  0.00000000E+00  0.00000000E+00  0.00000000E+00
  0.00000000E+00  0.00000000E+00  0.00000000E+00
  0.00000000E+00  0.00000000E+00  0.00000000E+00
  0.00000000E+00  0.00000000E+00  0.00000000E+00
  0.00000000E+00  0.00000000E+00  0.00000000E+00
  0.00000000E+00  0.00000000E+00  0.00000000E+00
  0.00000000E+00  0.00000000E+00  0.00000000E+00
  0.00000000E+00  0.00000000E+00  0.00000000E+00
  0.00000000E+00  0.00000000E+00  0.00000000E+00
  0.00000000E+00  0.00000000E+00  0.00000000E+00
  0.00000000E+00  0.00000000E+00  0.00000000E+00
  0.00000000E+00  0.00000000E+00  0.00000000E+00
  0.00000000E+00  0.00000000E+00  0.00000000E+00
  0.00000000E+00  0.00000000E+00  0.00000000E+00
  0.00000000E+00  0.00000000E+00  0.00000000E+00
  0.00000000E+00  0.00000000E+00  0.00000000E+00
  0.00000000E+00  0.00000000E+00  0.00000000E+00
  0.00000000E+00  0.00000000E+00  0.00000000E+00
  0.00000000E+00  0.00000000E+00  0.00000000E+00
  0.00000000E+00  0.00000000E+00  0.00000000E+00
  0.00000000E+00  0.00000000E+00  0.00000000E+00
  0.00000000E+00  0.00000000E+00  0.00000000E+00
  0.00000000E+00  0.00000000E+00  0.00000000E+00
  0.00000000E+00  0.00000000E+00  0.00000000E+00
  0.00000000E+00  0.00000000E+00  0.00000000E+00
  0.00000000E+00  0.00000000E+00  0.00000000E+00
  0.00000000E+00  0.00000000E+00  0.00000000E+00
  0.00000000E+00  0.00000000E+00  0.00000000E+00
  0.00000000E+00  0.00000000E+00  0.00000000E+00
  0.00000000E+00  0.00000000E+00  0.00000000E+00
  0.00000000E+00  0.00000000E+00  0.00000000E+00
  0.00000000E+00  0.00000000E+00  0.00000000E+00
  0.00000000E+00  0.00000000E+00  0.00000000E+00
  0.00000000E+00  0.00000000E+00  0.00000000E+00
