Cu Ti Cu O                              
   1.00000000000000     
     7.7216000556999997    0.0000000000000000    0.0000000000000000
     0.0000000000000000    7.7216000556999997    0.0000000000000000
     0.0000000000000000    0.0000000000000000   20.4599990845000015
   Cu   Ti   Cu   O 
    17     1    18     1
Selective dynamics
Direct
     0.0000000000000000    0.0000000000000000    0.0889500007054593   F   F   F
     0.0031836458400292    0.9971483915785349    0.2648331084006678   T   T   T
     0.1666699946535033    0.1666699946535033    0.0000000000000000   F   F   F
     0.1662142572887970    0.1694866548855881    0.1799287079828705   T   T   T
     0.3333300053659229    0.0000000000000000    0.0889500007054593   F   F   F
     0.3377333213964379    0.9941510163707566    0.2634844982929068   T   T   T
     0.5000000000194262    0.1666699946535033    0.0000000000000000   F   F   F
     0.4987842124180819    0.1667682866940068    0.1785355457687820   T   T   T
     0.6666700243299957    0.0000000000000000    0.0889500007054593   F   F   F
     0.6661330310486043    0.0023915541778880    0.2662729320639330   T   T   T
     0.8333299755987795    0.1666699946535033    0.0000000000000000   F   F   F
     0.8345302112228447    0.1674927592855484    0.1793929666217502   T   T   T
     0.0000000000000000    0.3333300053659229    0.0889500007054593   F   F   F
     0.9797472759308136    0.3328729692669585    0.2730868435110231   T   T   T
     0.1666699946535033    0.5000000000194262    0.0000000000000000   F   F   F
     0.1661511178509782    0.4960761445693237    0.1799138262058720   T   T   T
     0.3333300053659229    0.3333300053659229    0.0889500007054593   F   F   F
     0.3156911882338794    0.3320254447266487    0.2844154575958006   T   T   T
     0.5000000000194262    0.5000000000194262    0.0000000000000000   F   F   F
     0.4985629891886615    0.4989828863852825    0.1784962670889100   T   T   T
     0.6666700243299957    0.3333300053659229    0.0889500007054593   F   F   F
     0.6617209254199610    0.3331184126234308    0.2655110385178358   T   T   T
     0.8333299755987795    0.5000000000194262    0.0000000000000000   F   F   F
     0.8343205963469075    0.4983354066481077    0.1794392844848597   T   T   T
     0.0000000000000000    0.6666700243299957    0.0889500007054593   F   F   F
     0.0018859392659077    0.6688524099972998    0.2648058112012537   T   T   T
     0.1666699946535033    0.8333299755987795    0.0000000000000000   F   F   F
     0.1668674118961117    0.8326957330328610    0.1771944644780014   T   T   T
     0.3333300053659229    0.6666700243299957    0.0889500007054593   F   F   F
     0.3371366117369285    0.6702995966025991    0.2633826967993186   T   T   T
     0.5000000000194262    0.8333299755987795    0.0000000000000000   F   F   F
     0.5046692663691148    0.8328954642014665    0.1775266125024849   T   T   T
     0.6666700243299957    0.6666700243299957    0.0889500007054593   F   F   F
     0.6655455966938945    0.6629941865235798    0.2664250360052763   T   T   T
     0.8333299755987795    0.8333299755987795    0.0000000000000000   F   F   F
     0.8327383120244425    0.8334362966380630    0.1793139174593986   T   T   T
     0.1634204880064352    0.3328741463779390    0.3444202627956705   T   T   T
 
  0.00000000E+00  0.00000000E+00  0.00000000E+00
  0.00000000E+00  0.00000000E+00  0.00000000E+00
  0.00000000E+00  0.00000000E+00  0.00000000E+00
  0.00000000E+00  0.00000000E+00  0.00000000E+00
  0.00000000E+00  0.00000000E+00  0.00000000E+00
  0.00000000E+00  0.00000000E+00  0.00000000E+00
  0.00000000E+00  0.00000000E+00  0.00000000E+00
  0.00000000E+00  0.00000000E+00  0.00000000E+00
  0.00000000E+00  0.00000000E+00  0.00000000E+00
  0.00000000E+00  0.00000000E+00  0.00000000E+00
  0.00000000E+00  0.00000000E+00  0.00000000E+00
  0.00000000E+00  0.00000000E+00  0.00000000E+00
  0.00000000E+00  0.00000000E+00  0.00000000E+00
  0.00000000E+00  0.00000000E+00  0.00000000E+00
  0.00000000E+00  0.00000000E+00  0.00000000E+00
  0.00000000E+00  0.00000000E+00  0.00000000E+00
  0.00000000E+00  0.00000000E+00  0.00000000E+00
  0.00000000E+00  0.00000000E+00  0.00000000E+00
  0.00000000E+00  0.00000000E+00  0.00000000E+00
  0.00000000E+00  0.00000000E+00  0.00000000E+00
  0.00000000E+00  0.00000000E+00  0.00000000E+00
  0.00000000E+00  0.00000000E+00  0.00000000E+00
  0.00000000E+00  0.00000000E+00  0.00000000E+00
  0.00000000E+00  0.00000000E+00  0.00000000E+00
  0.00000000E+00  0.00000000E+00  0.00000000E+00
  0.00000000E+00  0.00000000E+00  0.00000000E+00
  0.00000000E+00  0.00000000E+00  0.00000000E+00
  0.00000000E+00  0.00000000E+00  0.00000000E+00
  0.00000000E+00  0.00000000E+00  0.00000000E+00
  0.00000000E+00  0.00000000E+00  0.00000000E+00
  0.00000000E+00  0.00000000E+00  0.00000000E+00
  0.00000000E+00  0.00000000E+00  0.00000000E+00
  0.00000000E+00  0.00000000E+00  0.00000000E+00
  0.00000000E+00  0.00000000E+00  0.00000000E+00
  0.00000000E+00  0.00000000E+00  0.00000000E+00
  0.00000000E+00  0.00000000E+00  0.00000000E+00
  0.00000000E+00  0.00000000E+00  0.00000000E+00
