Cu Y  Cu O                              
   1.00000000000000     
     7.7216000556999997    0.0000000000000000    0.0000000000000000
    -3.8608000277999999    6.6871018061000003    0.0000000000000000
     0.0000000000000000    0.0000000000000000   21.3047008513999998
   Cu   Y    Cu   O 
    17     1    18     1
Selective dynamics
Direct
  0.0000000000000000  0.0000000000000000  0.0000000000000000   F   F   F
  0.9944710035119015 -0.0005495184370056  0.2926673089471928   T   T   T
  0.2232061020280432  0.1159374506324687  0.1994519478918037   T   T   T
  0.1111100017667752  0.2222200035364281  0.0986400023008045   F   F   F
  0.3333300053659229  0.0000000000000000  0.0000000000000000   F   F   F
  0.3266549266260261  0.9891851364919628  0.2982648393860207   T   T   T
  0.5533097103993944  0.1132564020093534  0.1976016039262666   T   T   T
  0.4444400071326982  0.2222200035364281  0.0986400023008045   F   F   F
  0.6666700243299957  0.0000000000000000  0.0000000000000000   F   F   F
  0.6692045345906663  0.9976015546372993  0.2934551181283347   T   T   T
  0.8864201038363259  0.1113247664408759  0.1953987493181417   T   T   T
  0.7777799963101941  0.2222200035364281  0.0986400023008045   F   F   F
  0.0000000000045830  0.3333300053794161  0.0000000000000000   F   F   F
 -0.0049450710728213  0.3321073690177980  0.2905037206426455   T   T   T
  0.2233564294083172  0.4433471594133439  0.1965858112979710   T   T   T
  0.1111100017242208  0.5555599927626460  0.0986400023008045   F   F   F
  0.3333300053705130  0.3333300053794161  0.0000000000000000   F   F   F
  0.3251393565219189  0.3414693939989636  0.3547630761514645   T   T   T
  0.5509079837695547  0.4437914186847185  0.1994312690376460   T   T   T
  0.4444400072196544  0.5555599927626460  0.0986400023008045   F   F   F
  0.6666700243345787  0.3333300053794161  0.0000000000000000   F   F   F
  0.6774570187505757  0.3401310236724135  0.2982365074108237   T   T   T
  0.8824271506276093  0.4443925396346368  0.1964397633236076   T   T   T
  0.7777799963971503  0.5555599927626460  0.0986400023008045   F   F   F
  0.9999999999481375  0.6666700243644144  0.0000000000000000   F   F   F
 -0.0011572492602243  0.6680992969405447  0.2926425105555177   T   T   T
  0.2219690725269189  0.7842040322307818  0.1964185957056786   T   T   T
  0.1111100017896831  0.8888900280503833  0.0986400023008045   F   F   F
  0.3333300054435711  0.6666700243644144  0.0000000000000000   F   F   F
  0.3347839273857980  0.6715928664464916  0.2904793293885123   T   T   T
  0.5554888220284697  0.7804019233192937  0.1954117552337918   T   T   T
  0.4444400072851167  0.8888900280503833  0.0986400023008045   F   F   F
  0.6666700244076367  0.6666700243644144  0.0000000000000000   F   F   F
  0.6675401948067589  0.6726279631821119  0.2926722724709310   T   T   T
  0.8877220105095848  0.7789376978957469  0.1952706584888539   T   T   T
  0.7777799964626126  0.8888900280503833  0.0986400023008045   F   F   F
  0.4741146232102701  0.1926494419661544  0.3638268924284698   T   T   T
 
  0.00000000E+00  0.00000000E+00  0.00000000E+00
  0.00000000E+00  0.00000000E+00  0.00000000E+00
  0.00000000E+00  0.00000000E+00  0.00000000E+00
  0.00000000E+00  0.00000000E+00  0.00000000E+00
  0.00000000E+00  0.00000000E+00  0.00000000E+00
  0.00000000E+00  0.00000000E+00  0.00000000E+00
  0.00000000E+00  0.00000000E+00  0.00000000E+00
  0.00000000E+00  0.00000000E+00  0.00000000E+00
  0.00000000E+00  0.00000000E+00  0.00000000E+00
  0.00000000E+00  0.00000000E+00  0.00000000E+00
  0.00000000E+00  0.00000000E+00  0.00000000E+00
  0.00000000E+00  0.00000000E+00  0.00000000E+00
  0.00000000E+00  0.00000000E+00  0.00000000E+00
  0.00000000E+00  0.00000000E+00  0.00000000E+00
  0.00000000E+00  0.00000000E+00  0.00000000E+00
  0.00000000E+00  0.00000000E+00  0.00000000E+00
  0.00000000E+00  0.00000000E+00  0.00000000E+00
  0.00000000E+00  0.00000000E+00  0.00000000E+00
  0.00000000E+00  0.00000000E+00  0.00000000E+00
  0.00000000E+00  0.00000000E+00  0.00000000E+00
  0.00000000E+00  0.00000000E+00  0.00000000E+00
  0.00000000E+00  0.00000000E+00  0.00000000E+00
  0.00000000E+00  0.00000000E+00  0.00000000E+00
  0.00000000E+00  0.00000000E+00  0.00000000E+00
  0.00000000E+00  0.00000000E+00  0.00000000E+00
  0.00000000E+00  0.00000000E+00  0.00000000E+00
  0.00000000E+00  0.00000000E+00  0.00000000E+00
  0.00000000E+00  0.00000000E+00  0.00000000E+00
  0.00000000E+00  0.00000000E+00  0.00000000E+00
  0.00000000E+00  0.00000000E+00  0.00000000E+00
  0.00000000E+00  0.00000000E+00  0.00000000E+00
  0.00000000E+00  0.00000000E+00  0.00000000E+00
  0.00000000E+00  0.00000000E+00  0.00000000E+00
  0.00000000E+00  0.00000000E+00  0.00000000E+00
  0.00000000E+00  0.00000000E+00  0.00000000E+00
  0.00000000E+00  0.00000000E+00  0.00000000E+00
  0.00000000E+00  0.00000000E+00  0.00000000E+00
