Au  C  H  O                             
   1.00000000000000     
     8.8458995818999995    0.0000000000000000    0.0000000000000000
     0.0000000000000000    8.8458995818999995    0.0000000000000000
     0.0000000000000000    0.0000000000000000   21.2549991608000006
   Au   C    H    O 
    36     1     4     1
Selective dynamics
Direct
  0.0000000000000000  0.0000000000000000  0.0980900004383471   F   F   F
  0.0020289369499751  0.9975996091992273  0.2991453893431864   T   T   T
  0.1666699945381183  0.1666699945381183  0.0000000000000000   F   F   F
  0.1671631668624716  0.1664137360248564  0.1993471394365945   T   T   T
  0.3333300053544903  0.0000000000000000  0.0980900004383471   F   F   F
  0.3260040181533714  0.9948732506061215  0.3014554988542551   T   T   T
  0.5000000000056559  0.1666699945381183  0.0000000000000000   F   F   F
  0.5002860342198557  0.1663746693627655  0.1956718128498503   T   T   T
  0.6666700243881039  0.0000000000000000  0.0980900004383471   F   F   F
  0.6772950670224510 -0.0106592315638152  0.3016302232513164   T   T   T
  0.8333299756288497  0.1666699945381183  0.0000000000000000   F   F   F
  0.8317934388109869  0.1660717972061404  0.1999005738900322   T   T   T
  0.0000000000000000  0.3333300053544903  0.0980900004383471   F   F   F
 -0.0000447344292914  0.3333562237526415  0.2989612678024216   T   T   T
  0.1666699945381183  0.5000000000056559  0.0000000000000000   F   F   F
  0.1670506094612158  0.4996290674746561  0.1989403572637176   T   T   T
  0.3333300053544903  0.3333300053544903  0.0980900004383471   F   F   F
  0.3273729677740715  0.3392863864161810  0.2988332633417883   T   T   T
  0.5000000000056559  0.5000000000056559  0.0000000000000000   F   F   F
  0.5002352688539322  0.4995110777003641  0.1993264178382134   T   T   T
  0.6666700243881039  0.3333300053544903  0.0980900004383471   F   F   F
  0.6718055429212738  0.3406471276115101  0.3014638090532433   T   T   T
  0.8333299756288497  0.5000000000056559  0.0000000000000000   F   F   F
  0.8323192185322429  0.4981641866174550  0.1994537528613467   T   T   T
  0.0000000000000000  0.6666700243881039  0.0980900004383471   F   F   F
  0.0009427759321283  0.6657151523429290  0.2999791618191820   T   T   T
  0.1666699945381183  0.8333299756288497  0.0000000000000000   F   F   F
  0.1685109310005379  0.8343298662543926  0.1994644513513843   T   T   T
  0.3333300053544903  0.6666700243881039  0.0980900004383471   F   F   F
  0.3333216432610557  0.6667073950640627  0.2989999267294589   T   T   T
  0.5000000000056559  0.8333299756288497  0.0000000000000000   F   F   F
  0.5005812950782155  0.8348561684001968  0.1998984515867444   T   T   T
  0.6666700243881039  0.6666700243881039  0.0980900004383471   F   F   F
  0.6690761992209298  0.6646246003508282  0.2991412971532973   T   T   T
  0.8333299756288497  0.8333299756288497  0.0000000000000000   F   F   F
  0.8330778951489599  0.8335828258509796  0.1994065863797084   T   T   T
  0.3305078644074637  0.3362843798542040  0.4741934109669119   T   T   T
  0.4002608544898995  0.4090167483048904  0.5037940408346984   T   T   T
  0.2577634115500413  0.2665255680513868  0.5037837328284841   T   T   T
  0.4027833478269164  0.2640325061109273  0.4455096147316619   T   T   T
  0.2602012607637371  0.4066224594115717  0.4437234049337627   T   T   T
  0.5103434394621112  0.1563306372123980  0.3413046489912610   T   T   T
 
  0.00000000E+00  0.00000000E+00  0.00000000E+00
  0.00000000E+00  0.00000000E+00  0.00000000E+00
  0.00000000E+00  0.00000000E+00  0.00000000E+00
  0.00000000E+00  0.00000000E+00  0.00000000E+00
  0.00000000E+00  0.00000000E+00  0.00000000E+00
  0.00000000E+00  0.00000000E+00  0.00000000E+00
  0.00000000E+00  0.00000000E+00  0.00000000E+00
  0.00000000E+00  0.00000000E+00  0.00000000E+00
  0.00000000E+00  0.00000000E+00  0.00000000E+00
  0.00000000E+00  0.00000000E+00  0.00000000E+00
  0.00000000E+00  0.00000000E+00  0.00000000E+00
  0.00000000E+00  0.00000000E+00  0.00000000E+00
  0.00000000E+00  0.00000000E+00  0.00000000E+00
  0.00000000E+00  0.00000000E+00  0.00000000E+00
  0.00000000E+00  0.00000000E+00  0.00000000E+00
  0.00000000E+00  0.00000000E+00  0.00000000E+00
  0.00000000E+00  0.00000000E+00  0.00000000E+00
  0.00000000E+00  0.00000000E+00  0.00000000E+00
  0.00000000E+00  0.00000000E+00  0.00000000E+00
  0.00000000E+00  0.00000000E+00  0.00000000E+00
  0.00000000E+00  0.00000000E+00  0.00000000E+00
  0.00000000E+00  0.00000000E+00  0.00000000E+00
  0.00000000E+00  0.00000000E+00  0.00000000E+00
  0.00000000E+00  0.00000000E+00  0.00000000E+00
  0.00000000E+00  0.00000000E+00  0.00000000E+00
  0.00000000E+00  0.00000000E+00  0.00000000E+00
  0.00000000E+00  0.00000000E+00  0.00000000E+00
  0.00000000E+00  0.00000000E+00  0.00000000E+00
  0.00000000E+00  0.00000000E+00  0.00000000E+00
  0.00000000E+00  0.00000000E+00  0.00000000E+00
  0.00000000E+00  0.00000000E+00  0.00000000E+00
  0.00000000E+00  0.00000000E+00  0.00000000E+00
  0.00000000E+00  0.00000000E+00  0.00000000E+00
  0.00000000E+00  0.00000000E+00  0.00000000E+00
  0.00000000E+00  0.00000000E+00  0.00000000E+00
  0.00000000E+00  0.00000000E+00  0.00000000E+00
  0.00000000E+00  0.00000000E+00  0.00000000E+00
  0.00000000E+00  0.00000000E+00  0.00000000E+00
  0.00000000E+00  0.00000000E+00  0.00000000E+00
  0.00000000E+00  0.00000000E+00  0.00000000E+00
  0.00000000E+00  0.00000000E+00  0.00000000E+00
  0.00000000E+00  0.00000000E+00  0.00000000E+00
