Au                                      
   1.00000000000000     
     8.8458995818999995    0.0000000000000000    0.0000000000000000
     0.0000000000000000    8.8458995818999995    0.0000000000000000
     0.0000000000000000    0.0000000000000000   21.2549991608000006
   Au
    36
Selective dynamics
Direct
  0.0000000000000000  0.0000000000000000  0.0980900004383471   F   F   F
  0.0000000719459744 -0.0000000189609233  0.2993668889400387   T   T   T
  0.1666699945381183  0.1666699945381183  0.0000000000000000   F   F   F
  0.1666647439157567  0.1666647522355380  0.1989136069230197   T   T   T
  0.3333300053544903  0.0000000000000000  0.0980900004383471   F   F   F
  0.3333345997832722 -0.0000003054433772  0.2993674555194244   T   T   T
  0.5000000000056559  0.1666699945381183  0.0000000000000000   F   F   F
  0.4999999992167390  0.1666647500288629  0.1989126229200864   T   T   T
  0.6666700243881039  0.0000000000000000  0.0980900004383471   F   F   F
  0.6666652744829875 -0.0000000533162668  0.2993674361992989   T   T   T
  0.8333299756288497  0.1666699945381183  0.0000000000000000   F   F   F
  0.8333352272189289  0.1666648202379325  0.1989135801546522   T   T   T
  0.0000000000000000  0.3333300053544903  0.0980900004383471   F   F   F
  0.0000000217030859  0.3333346893203485  0.2993675038603263   T   T   T
  0.1666699945381183  0.5000000000056559  0.0000000000000000   F   F   F
  0.1666647069427074  0.5000000862003404  0.1989126525862787   T   T   T
  0.3333300053544903  0.3333300053544903  0.0980900004383471   F   F   F
  0.3333347326200598  0.3333348918842000  0.2993680638734073   T   T   T
  0.5000000000056559  0.5000000000056559  0.0000000000000000   F   F   F
  0.5000000602035012  0.5000000967633966  0.1989116403212052   T   T   T
  0.6666700243881039  0.3333300053544903  0.0980900004383471   F   F   F
  0.6666653408798588  0.3333349347915618  0.2993682847460560   T   T   T
  0.8333299756288497  0.5000000000056559  0.0000000000000000   F   F   F
  0.8333353491701806  0.5000000041838913  0.1989126653402972   T   T   T
  0.0000000000000000  0.6666700243881039  0.0980900004383471   F   F   F
  0.0000001647401343  0.6666653901556423  0.2993674881513464   T   T   T
  0.1666699945381183  0.8333299756288497  0.0000000000000000   F   F   F
  0.1666647603213712  0.8333353171295518  0.1989136388875837   T   T   T
  0.3333300053544903  0.6666700243881039  0.0980900004383471   F   F   F
  0.3333347190326184  0.6666654350968383  0.2993681559339670   T   T   T
  0.5000000000056559  0.8333299756288497  0.0000000000000000   F   F   F
  0.4999999654580947  0.8333352465466390  0.1989126628765612   T   T   T
  0.6666700243881039  0.6666700243881039  0.0980900004383471   F   F   F
  0.6666651332825271  0.6666650990485087  0.2993681690814446   T   T   T
  0.8333299756288497  0.8333299756288497  0.0000000000000000   F   F   F
  0.8333353122093656  0.8333352645035437  0.1989136925795494   T   T   T
 
  0.00000000E+00  0.00000000E+00  0.00000000E+00
  0.00000000E+00  0.00000000E+00  0.00000000E+00
  0.00000000E+00  0.00000000E+00  0.00000000E+00
  0.00000000E+00  0.00000000E+00  0.00000000E+00
  0.00000000E+00  0.00000000E+00  0.00000000E+00
  0.00000000E+00  0.00000000E+00  0.00000000E+00
  0.00000000E+00  0.00000000E+00  0.00000000E+00
  0.00000000E+00  0.00000000E+00  0.00000000E+00
  0.00000000E+00  0.00000000E+00  0.00000000E+00
  0.00000000E+00  0.00000000E+00  0.00000000E+00
  0.00000000E+00  0.00000000E+00  0.00000000E+00
  0.00000000E+00  0.00000000E+00  0.00000000E+00
  0.00000000E+00  0.00000000E+00  0.00000000E+00
  0.00000000E+00  0.00000000E+00  0.00000000E+00
  0.00000000E+00  0.00000000E+00  0.00000000E+00
  0.00000000E+00  0.00000000E+00  0.00000000E+00
  0.00000000E+00  0.00000000E+00  0.00000000E+00
  0.00000000E+00  0.00000000E+00  0.00000000E+00
  0.00000000E+00  0.00000000E+00  0.00000000E+00
  0.00000000E+00  0.00000000E+00  0.00000000E+00
  0.00000000E+00  0.00000000E+00  0.00000000E+00
  0.00000000E+00  0.00000000E+00  0.00000000E+00
  0.00000000E+00  0.00000000E+00  0.00000000E+00
  0.00000000E+00  0.00000000E+00  0.00000000E+00
  0.00000000E+00  0.00000000E+00  0.00000000E+00
  0.00000000E+00  0.00000000E+00  0.00000000E+00
  0.00000000E+00  0.00000000E+00  0.00000000E+00
  0.00000000E+00  0.00000000E+00  0.00000000E+00
  0.00000000E+00  0.00000000E+00  0.00000000E+00
  0.00000000E+00  0.00000000E+00  0.00000000E+00
  0.00000000E+00  0.00000000E+00  0.00000000E+00
  0.00000000E+00  0.00000000E+00  0.00000000E+00
  0.00000000E+00  0.00000000E+00  0.00000000E+00
  0.00000000E+00  0.00000000E+00  0.00000000E+00
  0.00000000E+00  0.00000000E+00  0.00000000E+00
  0.00000000E+00  0.00000000E+00  0.00000000E+00
