Au Pb Au  O  C  H                       
   1.00000000000000     
     8.8458995818999995    0.0000000000000000    0.0000000000000000
    -4.4229497909999997    7.6607737573000003    0.0000000000000000
     0.0000000000000000    0.0000000000000000   22.2227001189999989
   Au   Pb   Au   O    C    H 
    17     1    18     1     1     4
Selective dynamics
Direct
  0.0000000000000000  0.0000000000000000  0.0000000000000000   F   F   F
  0.0053183683009439  0.9882285735511082  0.3302269681976884   T   T   T
  0.2253768097597436  0.1127712495368723  0.2194367125473952   T   T   T
  0.1111101863827386  0.2222203727629690  0.1083401201072576   F   F   F
  0.3333295808640244  0.0000000000000000  0.0000000000000000   F   F   F
  0.3399606410345038  0.9916720647307281  0.3288282899093181   T   T   T
  0.5566128636377610  0.1101280312327253  0.2177540984349512   T   T   T
  0.4444397672467701  0.2222203727629690  0.1083401201072576   F   F   F
  0.6666704664008094  0.0000000000000000  0.0000000000000000   F   F   F
  0.6729921413977672  0.9938776370255261  0.3298317707320502   T   T   T
  0.8934438956533363  0.1139819159483566  0.2198255598221870   T   T   T
  0.7777806527835551  0.2222203727629690  0.1083401201072576   F   F   F
  0.0000005364069366  0.3333305591444571  0.0000000000000000   F   F   F
  0.9946768349851587  0.3100531520926827  0.3335686521055156   T   T   T
  0.2252977266344480  0.4416303587147140  0.2230055930930238   T   T   T
  0.1111095919175682  0.5555600693656331  0.1083401201072576   F   F   F
  0.3333300700061272  0.3333305591444571  0.0000000000000000   F   F   F
  0.3424910608863678  0.3234879162576116  0.3652663270811032   T   T   T
  0.5542239865087657  0.4414427752390244  0.2193978843278976   T   T   T
  0.4444403032488680  0.5555600693656331  0.1083401201072576   F   F   F
  0.6666698250756369  0.3333305591444571  0.0000000000000000   F   F   F
  0.6750855079793008  0.3268297148550868  0.3288695840685915   T   T   T
  0.8927265139811054  0.4438193091508315  0.2186625175381416   T   T   T
  0.7777800583183776  0.5555600693656331  0.1083401201072576   F   F   F
  0.9999998946769253  0.6666702557471211  0.0000000000000000   F   F   F
  0.0036695832665099  0.6632483695045350  0.3296253798940995   T   T   T
  0.2230163518261284  0.7740500019909081  0.2187030456526933   T   T   T
  0.1111100810596639  0.8888906285100902  0.1083401201072576   F   F   F
  0.3333306060082251  0.6666702557471211  0.0000000000000000   F   F   F
  0.3567083801569600  0.6721241349915774  0.3335263511734303   T   T   T
  0.5531345044506250  0.7734594540784784  0.2197644977064580   T   T   T
  0.4444407923909637  0.8888906285100902  0.1083401201072576   F   F   F
  0.6666703610777347  0.6666702557471211  0.0000000000000000   F   F   F
  0.6785943206073771  0.6613434416715726  0.3301875392368186   T   T   T
  0.8906509073799980  0.7763155224530273  0.2167333266810698   T   T   T
  0.7777805474604733  0.8888906285100902  0.1083401201072576   F   F   F
  0.1581773060867201  0.5085233489893137  0.4025474486933210   T   T   T
  0.2825177491069797  0.3836439631465322  0.4833203114306004   T   T   T
  0.3544960895352622  0.3123314751253568  0.4841887159758779   T   T   T
  0.3623061570130680  0.5080364376089547  0.5062979931384931   T   T   T
  0.1578835557596562  0.3030199786214332  0.5060432862765265   T   T   T
  0.2203704344082885  0.4462446403798065  0.4368492761811552   T   T   T
 
  0.00000000E+00  0.00000000E+00  0.00000000E+00
  0.00000000E+00  0.00000000E+00  0.00000000E+00
  0.00000000E+00  0.00000000E+00  0.00000000E+00
  0.00000000E+00  0.00000000E+00  0.00000000E+00
  0.00000000E+00  0.00000000E+00  0.00000000E+00
  0.00000000E+00  0.00000000E+00  0.00000000E+00
  0.00000000E+00  0.00000000E+00  0.00000000E+00
  0.00000000E+00  0.00000000E+00  0.00000000E+00
  0.00000000E+00  0.00000000E+00  0.00000000E+00
  0.00000000E+00  0.00000000E+00  0.00000000E+00
  0.00000000E+00  0.00000000E+00  0.00000000E+00
  0.00000000E+00  0.00000000E+00  0.00000000E+00
  0.00000000E+00  0.00000000E+00  0.00000000E+00
  0.00000000E+00  0.00000000E+00  0.00000000E+00
  0.00000000E+00  0.00000000E+00  0.00000000E+00
  0.00000000E+00  0.00000000E+00  0.00000000E+00
  0.00000000E+00  0.00000000E+00  0.00000000E+00
  0.00000000E+00  0.00000000E+00  0.00000000E+00
  0.00000000E+00  0.00000000E+00  0.00000000E+00
  0.00000000E+00  0.00000000E+00  0.00000000E+00
  0.00000000E+00  0.00000000E+00  0.00000000E+00
  0.00000000E+00  0.00000000E+00  0.00000000E+00
  0.00000000E+00  0.00000000E+00  0.00000000E+00
  0.00000000E+00  0.00000000E+00  0.00000000E+00
  0.00000000E+00  0.00000000E+00  0.00000000E+00
  0.00000000E+00  0.00000000E+00  0.00000000E+00
  0.00000000E+00  0.00000000E+00  0.00000000E+00
  0.00000000E+00  0.00000000E+00  0.00000000E+00
  0.00000000E+00  0.00000000E+00  0.00000000E+00
  0.00000000E+00  0.00000000E+00  0.00000000E+00
  0.00000000E+00  0.00000000E+00  0.00000000E+00
  0.00000000E+00  0.00000000E+00  0.00000000E+00
  0.00000000E+00  0.00000000E+00  0.00000000E+00
  0.00000000E+00  0.00000000E+00  0.00000000E+00
  0.00000000E+00  0.00000000E+00  0.00000000E+00
  0.00000000E+00  0.00000000E+00  0.00000000E+00
  0.00000000E+00  0.00000000E+00  0.00000000E+00
  0.00000000E+00  0.00000000E+00  0.00000000E+00
  0.00000000E+00  0.00000000E+00  0.00000000E+00
  0.00000000E+00  0.00000000E+00  0.00000000E+00
  0.00000000E+00  0.00000000E+00  0.00000000E+00
  0.00000000E+00  0.00000000E+00  0.00000000E+00
