Cu Zr Cu O                              
   1.00000000000000     
     6.3046998978000000    0.0000000000000000    0.0000000000000000
     0.0000000000000000    7.7216000556999997    0.0000000000000000
     0.0000000000000000    0.0000000000000000   25.4022006988999998
   Cu   Zr   Cu   O 
    19     1    25     1
Selective dynamics
Direct
  0.0000000000000000  0.0000000000000000  0.0000000000000000   F   F   F
  0.3333299999999966  0.0000000000000000  0.1169999999999973   F   F   F
  0.6663474028372924 -0.0024578186784921  0.2336697943769266   T   T   T
 -0.0086039211949270  0.0034856659469507  0.3542660797294679   T   T   T
  0.6404610357476999 -0.0076112155563755  0.4026134382396279   T   T   T
  0.6666700000000034  0.0000000000000000  0.0585000000000022   F   F   F
  0.0000132426445646 -0.0015670582688556  0.1752711828769382   T   T   T
  0.3303252572443916  0.0004478373457242  0.2916844778471613   T   T   T
  0.3333299999999966  0.1666700000000034  0.0292499999999976   F   F   F
  0.6666700000000034  0.1666700000000034  0.1462500000000020   F   F   F
  0.0015785751731908  0.1639649430518003  0.2614799850355058   T   T   T
  0.3324759759521769  0.1722548700314050  0.3789436578465266   T   T   T
  0.0000000000000000  0.1666700000000034  0.0877499999999998   F   F   F
  0.3344382522092948  0.1648918200240705  0.2041454091342538   T   T   T
  0.6715844558441622  0.1661170036736221  0.3192066221617857   T   T   T
  0.0000000000000000  0.3333299999999966  0.0000000000000000   F   F   F
  0.3333299999999966  0.3333299999999966  0.1169999999999973   F   F   F
  0.6705161258612661  0.3332718813428731  0.2325540605478539   T   T   T
  0.0147738010002173  0.3341551137771713  0.3458963547185331   T   T   T
  0.7186822805278305  0.3371515844750755  0.4203635230274268   T   T   T
  0.6666700000000034  0.3333299999999966  0.0585000000000022   F   F   F
  0.0022541884329253  0.3326760014280680  0.1745664354354257   T   T   T
  0.3418961936690098  0.3320053882472853  0.2897601950702701   T   T   T
  0.3333299999999966  0.5000000000000000  0.0292499999999976   F   F   F
  0.6666700000000034  0.5000000000000000  0.1462500000000020   F   F   F
  0.0005485496274427  0.5008773288233689  0.2612942768706161   T   T   T
  0.3320299615494520  0.4977920580468864  0.3768384024529113   T   T   T
  0.0000000000000000  0.5000000000000000  0.0877499999999998   F   F   F
  0.3337572572373659  0.4998769554204903  0.2043442857634266   T   T   T
  0.6712714800401353  0.4976163673631548  0.3220984903671603   T   T   T
  0.0000000000000000  0.6666700000000034  0.0000000000000000   F   F   F
  0.3333299999999966  0.6666700000000034  0.1169999999999973   F   F   F
  0.6656260593501063  0.6649904622664102  0.2332499539499862   T   T   T
 -0.0075634392305050  0.6634979630691790  0.3532798729909939   T   T   T
  0.6459150704895993  0.6810391347762703  0.4105153487119385   T   T   T
  0.6666700000000034  0.6666700000000034  0.0585000000000022   F   F   F
 -0.0005345906109666  0.6671089914405302  0.1750441066154879   T   T   T
  0.3295687671473292  0.6650934041586096  0.2918274698267317   T   T   T
  0.3333299999999966  0.8333299999999966  0.0292499999999976   F   F   F
  0.6666700000000034  0.8333299999999966  0.1462500000000020   F   F   F
 -0.0021712479528585  0.8325300973763390  0.2643445888987480   T   T   T
  0.3163212515194823  0.8332799891139955  0.3771791949239840   T   T   T
  0.0000000000000000  0.8333299999999966  0.0877499999999998   F   F   F
  0.3315740521190992  0.8320217929197155  0.2047755245076019   T   T   T
  0.6635840005066359  0.8264198757764935  0.3212105735476005   T   T   T
  0.6992262050002753  0.5189300585687721  0.4682878298466503   T   T   T
 
  0.00000000E+00  0.00000000E+00  0.00000000E+00
  0.00000000E+00  0.00000000E+00  0.00000000E+00
  0.00000000E+00  0.00000000E+00  0.00000000E+00
  0.00000000E+00  0.00000000E+00  0.00000000E+00
  0.00000000E+00  0.00000000E+00  0.00000000E+00
  0.00000000E+00  0.00000000E+00  0.00000000E+00
  0.00000000E+00  0.00000000E+00  0.00000000E+00
  0.00000000E+00  0.00000000E+00  0.00000000E+00
  0.00000000E+00  0.00000000E+00  0.00000000E+00
  0.00000000E+00  0.00000000E+00  0.00000000E+00
  0.00000000E+00  0.00000000E+00  0.00000000E+00
  0.00000000E+00  0.00000000E+00  0.00000000E+00
  0.00000000E+00  0.00000000E+00  0.00000000E+00
  0.00000000E+00  0.00000000E+00  0.00000000E+00
  0.00000000E+00  0.00000000E+00  0.00000000E+00
  0.00000000E+00  0.00000000E+00  0.00000000E+00
  0.00000000E+00  0.00000000E+00  0.00000000E+00
  0.00000000E+00  0.00000000E+00  0.00000000E+00
  0.00000000E+00  0.00000000E+00  0.00000000E+00
  0.00000000E+00  0.00000000E+00  0.00000000E+00
  0.00000000E+00  0.00000000E+00  0.00000000E+00
  0.00000000E+00  0.00000000E+00  0.00000000E+00
  0.00000000E+00  0.00000000E+00  0.00000000E+00
  0.00000000E+00  0.00000000E+00  0.00000000E+00
  0.00000000E+00  0.00000000E+00  0.00000000E+00
  0.00000000E+00  0.00000000E+00  0.00000000E+00
  0.00000000E+00  0.00000000E+00  0.00000000E+00
  0.00000000E+00  0.00000000E+00  0.00000000E+00
  0.00000000E+00  0.00000000E+00  0.00000000E+00
  0.00000000E+00  0.00000000E+00  0.00000000E+00
  0.00000000E+00  0.00000000E+00  0.00000000E+00
  0.00000000E+00  0.00000000E+00  0.00000000E+00
  0.00000000E+00  0.00000000E+00  0.00000000E+00
  0.00000000E+00  0.00000000E+00  0.00000000E+00
  0.00000000E+00  0.00000000E+00  0.00000000E+00
  0.00000000E+00  0.00000000E+00  0.00000000E+00
  0.00000000E+00  0.00000000E+00  0.00000000E+00
  0.00000000E+00  0.00000000E+00  0.00000000E+00
  0.00000000E+00  0.00000000E+00  0.00000000E+00
  0.00000000E+00  0.00000000E+00  0.00000000E+00
  0.00000000E+00  0.00000000E+00  0.00000000E+00
  0.00000000E+00  0.00000000E+00  0.00000000E+00
  0.00000000E+00  0.00000000E+00  0.00000000E+00
  0.00000000E+00  0.00000000E+00  0.00000000E+00
  0.00000000E+00  0.00000000E+00  0.00000000E+00
  0.00000000E+00  0.00000000E+00  0.00000000E+00
