Rh Cu Rh                                
   1.00000000000000     
     8.1670999526999992    0.0000000000000000    0.0000000000000000
    -4.0835499762999996    7.0729160343000004    0.0000000000000000
     0.0000000000000000    0.0000000000000000   21.6683998108000004
   Rh   Cu   Rh
    17     1    18
Selective dynamics
Direct
  0.0000000000000000  0.0000000000000000  0.0000000000000000   F   F   F
  0.9985171140580518  0.9994867316787425  0.3059539943613898   T   T   T
  0.2232278169942252  0.1132629880947711  0.2042231350916867   T   T   T
  0.1111100018265887  0.2222200036558988  0.1025800034339497   F   F   F
  0.3333300053588815  0.0000000000000000  0.0000000000000000   F   F   F
  0.3341516403901588 -0.0004583198560893  0.3059739698506875   T   T   T
  0.5554024519309706  0.1111977700358220  0.2038408121182045   T   T   T
  0.4444400071854702  0.2222200036558988  0.1025800034339497   F   F   F
  0.6666700244313759  0.0000000000000000  0.0000000000000000   F   F   F
  0.6667580373348189 -0.0000105818129284  0.3069637625275181   T   T   T
  0.8891876017932846  0.1112063509242330  0.2038044505198380   T   T   T
  0.7777799963820016  0.2222200036558988  0.1025800034339497   F   F   F
  0.9999999999638760  0.3333300054131527  0.0000000000000000   F   F   F
 -0.0014401932463611  0.3322199372153065  0.3059362411042719   T   T   T
  0.2232606704883741  0.4435224835291457  0.2041933793905296   T   T   T
  0.1111100017919213  0.5555599927871739  0.1025800034339497   F   F   F
  0.3333300054451982  0.3333300054131527  0.0000000000000000   F   F   F
  0.3332516977846280  0.3332730783692802  0.3081737113463774   T   T   T
  0.5535107119778873  0.4435033266755248  0.2042347077555001   T   T   T
  0.4444400071508028  0.5555599927871739  0.1025800034339497   F   F   F
  0.6666700243952519  0.3333300054131527  0.0000000000000000   F   F   F
  0.6670975621066485  0.3323712697088880  0.3059609090588175   T   T   T
  0.8892710959868760  0.4451686839029267  0.2038394490863564   T   T   T
  0.7777799963473342  0.5555599927871739  0.1025800034339497   F   F   F
  0.0000000000297220  0.6666700243765433  0.0000000000000000   F   F   F
  0.0000165203224496  0.6668090882691593  0.3065659436652081   T   T   T
  0.2214681977748656  0.7774454750019785  0.2038146014584475   T   T   T
  0.1111100018563107  0.8888900280324350  0.1025800034339497   F   F   F
  0.3333300053886035  0.6666700243765433  0.0000000000000000   F   F   F
  0.3342495318274334  0.6679807209946568  0.3059506901822496   T   T   T
  0.5554838887406072  0.7775546611443246  0.2038057576340267   T   T   T
  0.4444400072151922  0.8888900280324350  0.1025800034339497   F   F   F
  0.6666700243386572  0.6666700243765433  0.0000000000000000   F   F   F
  0.6672182970938043  0.6681935650223207  0.3059472463309920   T   T   T
  0.8893276633043761  0.7774431873232688  0.2038210404947113   T   T   T
  0.7777799964117236  0.8888900280324350  0.1025800034339497   F   F   F
 
  0.00000000E+00  0.00000000E+00  0.00000000E+00
  0.00000000E+00  0.00000000E+00  0.00000000E+00
  0.00000000E+00  0.00000000E+00  0.00000000E+00
  0.00000000E+00  0.00000000E+00  0.00000000E+00
  0.00000000E+00  0.00000000E+00  0.00000000E+00
  0.00000000E+00  0.00000000E+00  0.00000000E+00
  0.00000000E+00  0.00000000E+00  0.00000000E+00
  0.00000000E+00  0.00000000E+00  0.00000000E+00
  0.00000000E+00  0.00000000E+00  0.00000000E+00
  0.00000000E+00  0.00000000E+00  0.00000000E+00
  0.00000000E+00  0.00000000E+00  0.00000000E+00
  0.00000000E+00  0.00000000E+00  0.00000000E+00
  0.00000000E+00  0.00000000E+00  0.00000000E+00
  0.00000000E+00  0.00000000E+00  0.00000000E+00
  0.00000000E+00  0.00000000E+00  0.00000000E+00
  0.00000000E+00  0.00000000E+00  0.00000000E+00
  0.00000000E+00  0.00000000E+00  0.00000000E+00
  0.00000000E+00  0.00000000E+00  0.00000000E+00
  0.00000000E+00  0.00000000E+00  0.00000000E+00
  0.00000000E+00  0.00000000E+00  0.00000000E+00
  0.00000000E+00  0.00000000E+00  0.00000000E+00
  0.00000000E+00  0.00000000E+00  0.00000000E+00
  0.00000000E+00  0.00000000E+00  0.00000000E+00
  0.00000000E+00  0.00000000E+00  0.00000000E+00
  0.00000000E+00  0.00000000E+00  0.00000000E+00
  0.00000000E+00  0.00000000E+00  0.00000000E+00
  0.00000000E+00  0.00000000E+00  0.00000000E+00
  0.00000000E+00  0.00000000E+00  0.00000000E+00
  0.00000000E+00  0.00000000E+00  0.00000000E+00
  0.00000000E+00  0.00000000E+00  0.00000000E+00
  0.00000000E+00  0.00000000E+00  0.00000000E+00
  0.00000000E+00  0.00000000E+00  0.00000000E+00
  0.00000000E+00  0.00000000E+00  0.00000000E+00
  0.00000000E+00  0.00000000E+00  0.00000000E+00
  0.00000000E+00  0.00000000E+00  0.00000000E+00
  0.00000000E+00  0.00000000E+00  0.00000000E+00
