Ag In Ag O  C  H                        
   1.00000000000000     
    12.4799995421999999    0.0000000000000000    0.0000000000000000
     0.0000000000000000    8.8247003554999992    0.0000000000000000
     0.0000000000000000    0.0000000000000000   19.4123001098999985
   Ag   In   Ag   O    C    H 
    16     1    19     1     1     4
Selective dynamics
Direct
     0.0028083658130428    0.9990168738593603    0.2298997270720136   T   T   T
     0.1699815312608491    0.1685560165357304    0.1567000226439560   T   T   T
     0.1666699945754431    0.1666699946455736    0.0000000000000000   F   F   F
     0.0000000000000000    0.0000000000000000    0.0757699981286564   F   F   F
     0.3344210831694490    0.9970736196544580    0.2257953055131465   T   T   T
     0.4980446011325598    0.1686019104851026    0.1558211579424175   T   T   T
     0.4999999999919851    0.1666699946455736    0.0000000000000000   F   F   F
     0.3333300054165420    0.0000000000000000    0.0757699981286564   F   F   F
     0.6647049219635509    0.0004462371297999    0.2278365088133749   T   T   T
     0.8352094625194451    0.1668886705630454    0.1572232770696583   T   T   T
     0.8333299756008401    0.1666699946455736    0.0000000000000000   F   F   F
     0.6666700243751222    0.0000000000000000    0.0757699981286564   F   F   F
     0.0017682688874150    0.3326290377586886    0.2315340853423794   T   T   T
     0.1689987707975801    0.4970901272829610    0.1539151507668320   T   T   T
     0.1666699945754431    0.5000000000283293    0.0000000000000000   F   F   F
     0.0000000000000000    0.3333300053827557    0.0757699981286564   F   F   F
     0.2073141689697199    0.3181136075764743    0.2960975579529554   T   T   T
     0.4977050791809331    0.4961767336469529    0.1556156828180990   T   T   T
     0.4999999999919851    0.5000000000283293    0.0000000000000000   F   F   F
     0.3333300054165420    0.3333300053827557    0.0757699981286564   F   F   F
     0.6664473617673753    0.3323497855952593    0.2295705729836733   T   T   T
     0.8350981527963663    0.4979879415563772    0.1573176598969308   T   T   T
     0.8333299756008401    0.5000000000283293    0.0000000000000000   F   F   F
     0.6666700243751222    0.3333300053827557    0.0757699981286564   F   F   F
     0.0022310120740515    0.6655555763087027    0.2297857296160365   T   T   T
     0.1662499540010339    0.8326984697279427    0.1548707734539669   T   T   T
     0.1666699945754431    0.8333299756083719    0.0000000000000000   F   F   F
     0.0000000000000000    0.6666700243632988    0.0757699981286564   F   F   F
     0.3342881144676522    0.6655242718944396    0.2293827758762629   T   T   T
     0.4995513789131558    0.8303031478585462    0.1566599168884511   T   T   T
     0.4999999999919851    0.8333299756083719    0.0000000000000000   F   F   F
     0.3333300054165420    0.6666700243632988    0.0757699981286564   F   F   F
     0.6658219247897661    0.6636216845059810    0.2284985248138595   T   T   T
     0.8336083472087369    0.8329914294538651    0.1583163273580415   T   T   T
     0.8333299756008401    0.8333299756083719    0.0000000000000000   F   F   F
     0.6666700243751222    0.6666700243632988    0.0757699981286564   F   F   F
     0.2516788890489722    0.5505390787552146    0.3220142994899778   T   T   T
     0.3220661010768615    0.2072112768220293    0.3686977077078213   T   T   T
     0.3435009269886090    0.0904447341620377    0.3556057134731959   T   T   T
     0.3946312644752402    0.2769103705578530    0.3688460387425701   T   T   T
     0.2860656204863520    0.2076601225821735    0.4201268813720198   T   T   T
     0.2986573777931389    0.5525586357165763    0.3617903808194191   T   T   T
 
  0.00000000E+00  0.00000000E+00  0.00000000E+00
  0.00000000E+00  0.00000000E+00  0.00000000E+00
  0.00000000E+00  0.00000000E+00  0.00000000E+00
  0.00000000E+00  0.00000000E+00  0.00000000E+00
  0.00000000E+00  0.00000000E+00  0.00000000E+00
  0.00000000E+00  0.00000000E+00  0.00000000E+00
  0.00000000E+00  0.00000000E+00  0.00000000E+00
  0.00000000E+00  0.00000000E+00  0.00000000E+00
  0.00000000E+00  0.00000000E+00  0.00000000E+00
  0.00000000E+00  0.00000000E+00  0.00000000E+00
  0.00000000E+00  0.00000000E+00  0.00000000E+00
  0.00000000E+00  0.00000000E+00  0.00000000E+00
  0.00000000E+00  0.00000000E+00  0.00000000E+00
  0.00000000E+00  0.00000000E+00  0.00000000E+00
  0.00000000E+00  0.00000000E+00  0.00000000E+00
  0.00000000E+00  0.00000000E+00  0.00000000E+00
  0.00000000E+00  0.00000000E+00  0.00000000E+00
  0.00000000E+00  0.00000000E+00  0.00000000E+00
  0.00000000E+00  0.00000000E+00  0.00000000E+00
  0.00000000E+00  0.00000000E+00  0.00000000E+00
  0.00000000E+00  0.00000000E+00  0.00000000E+00
  0.00000000E+00  0.00000000E+00  0.00000000E+00
  0.00000000E+00  0.00000000E+00  0.00000000E+00
  0.00000000E+00  0.00000000E+00  0.00000000E+00
  0.00000000E+00  0.00000000E+00  0.00000000E+00
  0.00000000E+00  0.00000000E+00  0.00000000E+00
  0.00000000E+00  0.00000000E+00  0.00000000E+00
  0.00000000E+00  0.00000000E+00  0.00000000E+00
  0.00000000E+00  0.00000000E+00  0.00000000E+00
  0.00000000E+00  0.00000000E+00  0.00000000E+00
  0.00000000E+00  0.00000000E+00  0.00000000E+00
  0.00000000E+00  0.00000000E+00  0.00000000E+00
  0.00000000E+00  0.00000000E+00  0.00000000E+00
  0.00000000E+00  0.00000000E+00  0.00000000E+00
  0.00000000E+00  0.00000000E+00  0.00000000E+00
  0.00000000E+00  0.00000000E+00  0.00000000E+00
  0.00000000E+00  0.00000000E+00  0.00000000E+00
  0.00000000E+00  0.00000000E+00  0.00000000E+00
  0.00000000E+00  0.00000000E+00  0.00000000E+00
  0.00000000E+00  0.00000000E+00  0.00000000E+00
  0.00000000E+00  0.00000000E+00  0.00000000E+00
  0.00000000E+00  0.00000000E+00  0.00000000E+00
