Au Tl Au O                              
   1.00000000000000     
    12.5100002288999992    0.0000000000000000    0.0000000000000000
     0.0000000000000000    8.8458995818999995    0.0000000000000000
     0.0000000000000000    0.0000000000000000   19.4230003356999994
   Au   Tl   Au   O 
    17     1    18     1
Selective dynamics
Direct
  0.0000000000000000  0.0000000000000000  0.0759100019830612   F   F   F
  0.0283375657356410  0.0083798668321163  0.2314109285024147   T   T   T
  0.1709401048693918  0.1763879100229453  0.1465114422189137   T   T   T
  0.1666699946322368  0.1666699945381183  0.0000000000000000   F   F   F
  0.3333300054117316  0.0000000000000000  0.0759100019830612   F   F   F
  0.3141398853874500 -0.0064867768591115  0.2280509473580850   T   T   T
  0.4838203615937027  0.1733334250887318  0.1634208812049441   T   T   T
  0.4999999999640323  0.1666699945381183  0.0000000000000000   F   F   F
  0.6666700244124115  0.0000000000000000  0.0759100019830612   F   F   F
  0.6645768420834743  0.0108559883663275  0.2210336177146077   T   T   T
  0.8416521999139315  0.1675338337459631  0.1625438149662993   T   T   T
  0.8333299756395505  0.1666699945381183  0.0000000000000000   F   F   F
  0.0000000000000000  0.3333300053544903  0.0759100019830612   F   F   F
  0.0053061089485412  0.3394118499589910  0.2242763545485332   T   T   T
  0.1769528809875618  0.4940687931397594  0.1583318617380449   T   T   T
  0.1666699946322368  0.5000000000056559  0.0000000000000000   F   F   F
  0.3333300054117316  0.3333300053544903  0.0759100019830612   F   F   F
  0.2199096037539930  0.3016145890097572  0.3051168552305591   T   T   T
  0.4952803572256115  0.4997788903787667  0.1580036116745038   T   T   T
  0.4999999999640323  0.5000000000056559  0.0000000000000000   F   F   F
  0.6666700244124115  0.3333300053544903  0.0759100019830612   F   F   F
  0.6632789497979917  0.3345099715642824  0.2199017312322862   T   T   T
  0.8323463943856708  0.5059484237766957  0.1597930676240520   T   T   T
  0.8333299756395505  0.5000000000056559  0.0000000000000000   F   F   F
  0.0000000000000000  0.6666700243881039  0.0759100019830612   F   F   F
  0.0085277708749382  0.6587902891040349  0.2240319333152646   T   T   T
  0.1641619240194524  0.8227774543753149  0.1490928261762821   T   T   T
  0.1666699946322368  0.8333299756288497  0.0000000000000000   F   F   F
  0.3333300054117316  0.6666700243881039  0.0759100019830612   F   F   F
  0.3332824600761225  0.6675914703818421  0.2225909519742627   T   T   T
  0.4917393017367365  0.8487807166129386  0.1630044225446932   T   T   T
  0.4999999999640323  0.8333299756288497  0.0000000000000000   F   F   F
  0.6666700244124115  0.6666700243881039  0.0759100019830612   F   F   F
  0.6641624671018477  0.6795139641080158  0.2184812342282005   T   T   T
  0.8478120881746829  0.8476035089690942  0.1724912663755724   T   T   T
  0.8333299756395505  0.8333299756288497  0.0000000000000000   F   F   F
  0.1753050610691360  0.0453638737689298  0.2912001980600788   T   T   T
 
  0.00000000E+00  0.00000000E+00  0.00000000E+00
  0.00000000E+00  0.00000000E+00  0.00000000E+00
  0.00000000E+00  0.00000000E+00  0.00000000E+00
  0.00000000E+00  0.00000000E+00  0.00000000E+00
  0.00000000E+00  0.00000000E+00  0.00000000E+00
  0.00000000E+00  0.00000000E+00  0.00000000E+00
  0.00000000E+00  0.00000000E+00  0.00000000E+00
  0.00000000E+00  0.00000000E+00  0.00000000E+00
  0.00000000E+00  0.00000000E+00  0.00000000E+00
  0.00000000E+00  0.00000000E+00  0.00000000E+00
  0.00000000E+00  0.00000000E+00  0.00000000E+00
  0.00000000E+00  0.00000000E+00  0.00000000E+00
  0.00000000E+00  0.00000000E+00  0.00000000E+00
  0.00000000E+00  0.00000000E+00  0.00000000E+00
  0.00000000E+00  0.00000000E+00  0.00000000E+00
  0.00000000E+00  0.00000000E+00  0.00000000E+00
  0.00000000E+00  0.00000000E+00  0.00000000E+00
  0.00000000E+00  0.00000000E+00  0.00000000E+00
  0.00000000E+00  0.00000000E+00  0.00000000E+00
  0.00000000E+00  0.00000000E+00  0.00000000E+00
  0.00000000E+00  0.00000000E+00  0.00000000E+00
  0.00000000E+00  0.00000000E+00  0.00000000E+00
  0.00000000E+00  0.00000000E+00  0.00000000E+00
  0.00000000E+00  0.00000000E+00  0.00000000E+00
  0.00000000E+00  0.00000000E+00  0.00000000E+00
  0.00000000E+00  0.00000000E+00  0.00000000E+00
  0.00000000E+00  0.00000000E+00  0.00000000E+00
  0.00000000E+00  0.00000000E+00  0.00000000E+00
  0.00000000E+00  0.00000000E+00  0.00000000E+00
  0.00000000E+00  0.00000000E+00  0.00000000E+00
  0.00000000E+00  0.00000000E+00  0.00000000E+00
  0.00000000E+00  0.00000000E+00  0.00000000E+00
  0.00000000E+00  0.00000000E+00  0.00000000E+00
  0.00000000E+00  0.00000000E+00  0.00000000E+00
  0.00000000E+00  0.00000000E+00  0.00000000E+00
  0.00000000E+00  0.00000000E+00  0.00000000E+00
  0.00000000E+00  0.00000000E+00  0.00000000E+00
