Ag   Zn   Ag   O    C    H              
   1.00000000000000     
     8.8247003554999992    0.0000000000000000    0.0000000000000000
     0.0000000000000000    8.8247003554999992    0.0000000000000000
     0.0000000000000000    0.0000000000000000   21.2399997710999990
   Ag   Zn   Ag   O    C    H 
    17     1    18     1     1     4
Selective dynamics
Direct
  0.0000000000000000  0.0000000000000000  0.0979299992192182   F   F   F
  0.9985170143189305  0.9985573350044504  0.3003904862312379   T   T   T
  0.1666699946455736  0.1666699946455736  0.0000000000000000   F   F   F
  0.1690557496709992  0.1689810174815291  0.2016620310786165   T   T   T
  0.3333300053827557  0.0000000000000000  0.0979299992192182   F   F   F
  0.3325253686473839  0.9954134021968616  0.2984376336800221   T   T   T
  0.5000000000283293  0.1666699946455736  0.0000000000000000   F   F   F
  0.4978108176288139  0.1700710536240862  0.2011339690413131   T   T   T
  0.6666700243632988  0.0000000000000000  0.0979299992192182   F   F   F
  0.6669514336813952  0.9992617522621279  0.2993971810203344   T   T   T
  0.8333299756083719  0.1666699946455736  0.0000000000000000   F   F   F
  0.8303257728404059  0.1677159371542395  0.2001569799032466   T   T   T
  0.0000000000000000  0.3333300053827557  0.0979299992192182   F   F   F
  0.9957817950620740  0.3325768058576012  0.2984923360690218   T   T   T
  0.1666699946455736  0.5000000000283293  0.0000000000000000   F   F   F
  0.1700550931362291  0.4977828242710339  0.2010994278077022   T   T   T
  0.3333300053827557  0.3333300053827557  0.0979299992192182   F   F   F
  0.3075712191238841  0.3068769578898644  0.3112758326356869   T   T   T
  0.5000000000283293  0.5000000000283293  0.0000000000000000   F   F   F
  0.5003849931561881  0.5003404494355167  0.1974314359433677   T   T   T
  0.6666700243632988  0.3333300053827557  0.0979299992192182   F   F   F
  0.6676089696457553  0.3320708597567295  0.3020467123777343   T   T   T
  0.8333299756083719  0.5000000000283293  0.0000000000000000   F   F   F
  0.8322826568327124  0.4998834464962914  0.1997198923096224   T   T   T
  0.0000000000000000  0.6666700243632988  0.0979299992192182   F   F   F
  0.9992842731906180  0.6669971287585611  0.2993927515763641   T   T   T
  0.1666699946455736  0.8333299756083719  0.0000000000000000   F   F   F
  0.1676730814601095  0.8302697709883711  0.2001350466461956   T   T   T
  0.3333300053827557  0.6666700243632988  0.0979299992192182   F   F   F
  0.3320900481917079  0.6673576452063228  0.3020340808211162   T   T   T
  0.5000000000283293  0.8333299756083719  0.0000000000000000   F   F   F
  0.4998808837920158  0.8322086458148054  0.1996833050568254   T   T   T
  0.6666700243632988  0.6666700243632988  0.0979299992192182   F   F   F
  0.6681999971693594  0.6682419670252342  0.3007023638868347   T   T   T
  0.8333299756083719  0.8333299756083719  0.0000000000000000   F   F   F
  0.8326762580157846  0.8326951970554163  0.1993037652211310   T   T   T
  0.4579802893047532  0.4578305634551310  0.3473171806346740   T   T   T
  0.3012149677305559  0.3010924374648726  0.4315387782237552   T   T   T
  0.2150340373153560  0.2147710856508942  0.4220814718920816   T   T   T
  0.3919950037247183  0.2479036627078873  0.4588522132910160   T   T   T
  0.2478044115915126  0.3919157519670478  0.4587467813092247   T   T   T
  0.3962670501033513  0.3961270728300691  0.3893281541728876   T   T   T
 
  0.00000000E+00  0.00000000E+00  0.00000000E+00
  0.00000000E+00  0.00000000E+00  0.00000000E+00
  0.00000000E+00  0.00000000E+00  0.00000000E+00
  0.00000000E+00  0.00000000E+00  0.00000000E+00
  0.00000000E+00  0.00000000E+00  0.00000000E+00
  0.00000000E+00  0.00000000E+00  0.00000000E+00
  0.00000000E+00  0.00000000E+00  0.00000000E+00
  0.00000000E+00  0.00000000E+00  0.00000000E+00
  0.00000000E+00  0.00000000E+00  0.00000000E+00
  0.00000000E+00  0.00000000E+00  0.00000000E+00
  0.00000000E+00  0.00000000E+00  0.00000000E+00
  0.00000000E+00  0.00000000E+00  0.00000000E+00
  0.00000000E+00  0.00000000E+00  0.00000000E+00
  0.00000000E+00  0.00000000E+00  0.00000000E+00
  0.00000000E+00  0.00000000E+00  0.00000000E+00
  0.00000000E+00  0.00000000E+00  0.00000000E+00
  0.00000000E+00  0.00000000E+00  0.00000000E+00
  0.00000000E+00  0.00000000E+00  0.00000000E+00
  0.00000000E+00  0.00000000E+00  0.00000000E+00
  0.00000000E+00  0.00000000E+00  0.00000000E+00
  0.00000000E+00  0.00000000E+00  0.00000000E+00
  0.00000000E+00  0.00000000E+00  0.00000000E+00
  0.00000000E+00  0.00000000E+00  0.00000000E+00
  0.00000000E+00  0.00000000E+00  0.00000000E+00
  0.00000000E+00  0.00000000E+00  0.00000000E+00
  0.00000000E+00  0.00000000E+00  0.00000000E+00
  0.00000000E+00  0.00000000E+00  0.00000000E+00
  0.00000000E+00  0.00000000E+00  0.00000000E+00
  0.00000000E+00  0.00000000E+00  0.00000000E+00
  0.00000000E+00  0.00000000E+00  0.00000000E+00
  0.00000000E+00  0.00000000E+00  0.00000000E+00
  0.00000000E+00  0.00000000E+00  0.00000000E+00
  0.00000000E+00  0.00000000E+00  0.00000000E+00
  0.00000000E+00  0.00000000E+00  0.00000000E+00
  0.00000000E+00  0.00000000E+00  0.00000000E+00
  0.00000000E+00  0.00000000E+00  0.00000000E+00
  0.00000000E+00  0.00000000E+00  0.00000000E+00
  0.00000000E+00  0.00000000E+00  0.00000000E+00
  0.00000000E+00  0.00000000E+00  0.00000000E+00
  0.00000000E+00  0.00000000E+00  0.00000000E+00
  0.00000000E+00  0.00000000E+00  0.00000000E+00
  0.00000000E+00  0.00000000E+00  0.00000000E+00
