Rh  Cu  Rh  C   H   O                   
   1.00000000000000     
     8.1670999526999992    0.0000000000000000    0.0000000000000000
    -4.0835499762999996    7.0729160343000004    0.0000000000000000
     0.0000000000000000    0.0000000000000000   21.6683998108000004
   Rh   Cu   Rh   C    H    O 
    17     1    18     1     4     1
Selective dynamics
Direct
  0.0000000000000000  0.0000000000000000  0.0000000000000000   F   F   F
  0.9983581830774499  0.9996145005866104  0.3055413579192435   T   T   T
  0.2235855651257755  0.1151798692121184  0.2047731658729711   T   T   T
  0.1111100018265887  0.2222200036558988  0.1025800034339497   F   F   F
  0.3333300053588815  0.0000000000000000  0.0000000000000000   F   F   F
  0.3347694626022966  0.0036398752904576  0.3051780235319909   T   T   T
  0.5549894515081596  0.1117094984514908  0.2032135879039547   T   T   T
  0.4444400071854702  0.2222200036558988  0.1025800034339497   F   F   F
  0.6666700244313759  0.0000000000000000  0.0000000000000000   F   F   F
  0.6654934368855298  0.0013489189555618  0.3058256412024052   T   T   T
  0.8888292745559273  0.1124316001091575  0.2046188860626495   T   T   T
  0.7777799963820016  0.2222200036558988  0.1025800034339497   F   F   F
  0.9999999999638760  0.3333300054131527  0.0000000000000000   F   F   F
  0.9969041900696899  0.3318873764121495  0.3069055858315390   T   T   T
  0.2228296184902463  0.4438815760364011  0.2035950963143121   T   T   T
  0.1111100017919213  0.5555599927871739  0.1025800034339497   F   F   F
  0.3333300054451982  0.3333300054131527  0.0000000000000000   F   F   F
  0.3359322804266963  0.3343724951574732  0.3177661583307517   T   T   T
  0.5517488880070471  0.4433009377012735  0.2047960618171756   T   T   T
  0.4444400071508028  0.5555599927871739  0.1025800034339497   F   F   F
  0.6666700243952519  0.3333300054131527  0.0000000000000000   F   F   F
  0.6636171810937239  0.3319656767049362  0.3051482117347120   T   T   T
  0.8892722559674359  0.4453619350955725  0.2035033808662348   T   T   T
  0.7777799963473342  0.5555599927871739  0.1025800034339497   F   F   F
  0.0000000000297220  0.6666700243765433  0.0000000000000000   F   F   F
  0.9972777752039499  0.6693081199257856  0.3071302513196202   T   T   T
  0.2213694612831557  0.7775385556114841  0.2035377161217435   T   T   T
  0.1111100018563107  0.8888900280324350  0.1025800034339497   F   F   F
  0.3333300053886035  0.6666700243765433  0.0000000000000000   F   F   F
  0.3346710959908779  0.6698796934920780  0.3069668594552017   T   T   T
  0.5543237221716545  0.7779735700494586  0.2046007988598524   T   T   T
  0.4444400072151922  0.8888900280324350  0.1025800034339497   F   F   F
  0.6666700243386572  0.6666700243765433  0.0000000000000000   F   F   F
  0.6680764232997982  0.6695148389316887  0.3055372299740694   T   T   T
  0.8890479077132445  0.7778818335332535  0.2047147372123686   T   T   T
  0.7777799964117236  0.8888900280324350  0.1025800034339497   F   F   F
  0.3248242710765668  0.3413287797094234  0.4235506547410915   T   T   T
  0.4188776669920012  0.4676028000631220  0.4502442288134417   T   T   T
  0.1980464594465017  0.2461977959872958  0.4498558482576021   T   T   T
  0.4014309003390290  0.2654970210119525  0.4146858082260581   T   T   T
  0.2341442686896989  0.4321252642014996  0.3938339375704442   T   T   T
  0.1528415990620716  0.5133027575159435  0.3773948906762562   T   T   T
 
  0.00000000E+00  0.00000000E+00  0.00000000E+00
  0.00000000E+00  0.00000000E+00  0.00000000E+00
  0.00000000E+00  0.00000000E+00  0.00000000E+00
  0.00000000E+00  0.00000000E+00  0.00000000E+00
  0.00000000E+00  0.00000000E+00  0.00000000E+00
  0.00000000E+00  0.00000000E+00  0.00000000E+00
  0.00000000E+00  0.00000000E+00  0.00000000E+00
  0.00000000E+00  0.00000000E+00  0.00000000E+00
  0.00000000E+00  0.00000000E+00  0.00000000E+00
  0.00000000E+00  0.00000000E+00  0.00000000E+00
  0.00000000E+00  0.00000000E+00  0.00000000E+00
  0.00000000E+00  0.00000000E+00  0.00000000E+00
  0.00000000E+00  0.00000000E+00  0.00000000E+00
  0.00000000E+00  0.00000000E+00  0.00000000E+00
  0.00000000E+00  0.00000000E+00  0.00000000E+00
  0.00000000E+00  0.00000000E+00  0.00000000E+00
  0.00000000E+00  0.00000000E+00  0.00000000E+00
  0.00000000E+00  0.00000000E+00  0.00000000E+00
  0.00000000E+00  0.00000000E+00  0.00000000E+00
  0.00000000E+00  0.00000000E+00  0.00000000E+00
  0.00000000E+00  0.00000000E+00  0.00000000E+00
  0.00000000E+00  0.00000000E+00  0.00000000E+00
  0.00000000E+00  0.00000000E+00  0.00000000E+00
  0.00000000E+00  0.00000000E+00  0.00000000E+00
  0.00000000E+00  0.00000000E+00  0.00000000E+00
  0.00000000E+00  0.00000000E+00  0.00000000E+00
  0.00000000E+00  0.00000000E+00  0.00000000E+00
  0.00000000E+00  0.00000000E+00  0.00000000E+00
  0.00000000E+00  0.00000000E+00  0.00000000E+00
  0.00000000E+00  0.00000000E+00  0.00000000E+00
  0.00000000E+00  0.00000000E+00  0.00000000E+00
  0.00000000E+00  0.00000000E+00  0.00000000E+00
  0.00000000E+00  0.00000000E+00  0.00000000E+00
  0.00000000E+00  0.00000000E+00  0.00000000E+00
  0.00000000E+00  0.00000000E+00  0.00000000E+00
  0.00000000E+00  0.00000000E+00  0.00000000E+00
  0.00000000E+00  0.00000000E+00  0.00000000E+00
  0.00000000E+00  0.00000000E+00  0.00000000E+00
  0.00000000E+00  0.00000000E+00  0.00000000E+00
  0.00000000E+00  0.00000000E+00  0.00000000E+00
  0.00000000E+00  0.00000000E+00  0.00000000E+00
  0.00000000E+00  0.00000000E+00  0.00000000E+00
