Cu Hf Cu O                              
   1.00000000000000     
     6.3046998978000000    0.0000000000000000    0.0000000000000000
     0.0000000000000000    7.7216000556999997    0.0000000000000000
     0.0000000000000000    0.0000000000000000   25.4022006988999998
   Cu   Hf   Cu   O 
    19     1    25     1
Selective dynamics
Direct
     0.0000000000000000    0.0000000000000000    0.0000000000000000   F   F   F
     0.3333299999999966    0.0000000000000000    0.1169999999999973   F   F   F
     0.6667074183299817    0.0027880263871755    0.2329803140002916   T   T   T
     0.9970319798611854    0.0011181993761910    0.3513145013274664   T   T   T
     0.6525612610155408    0.9957199615054949    0.4029082289500206   T   T   T
     0.6666700000000034    0.0000000000000000    0.0585000000000022   F   F   F
     0.0002807469884415    0.0008911803351262    0.1750856090203597   T   T   T
     0.3320853003688922    0.0026603994559840    0.2914286424406766   T   T   T
     0.3333299999999966    0.1666700000000034    0.0292499999999976   F   F   F
     0.6666700000000034    0.1666700000000034    0.1462500000000020   F   F   F
     0.0016767860869589    0.1680967038273468    0.2624232111791643   T   T   T
     0.3385628042243888    0.1655953385239585    0.3777311760427848   T   T   T
     0.0000000000000000    0.1666700000000034    0.0877499999999998   F   F   F
     0.3337465009652997    0.1670909870176169    0.2042020545163559   T   T   T
     0.6749317514563268    0.1739773711250175    0.3217332775399348   T   T   T
     0.0000000000000000    0.3333299999999966    0.0000000000000000   F   F   F
     0.3333299999999966    0.3333299999999966    0.1169999999999973   F   F   F
     0.6679912396751798    0.3345262350324534    0.2332667470553567   T   T   T
     0.0167472262807636    0.3357530468407978    0.3496055449868574   T   T   T
     0.7090638907769008    0.3388393745520327    0.4216697338499095   T   T   T
     0.6666700000000034    0.3333299999999966    0.0585000000000022   F   F   F
     0.0005298029115921    0.3337630813073394    0.1751237303503264   T   T   T
     0.3377793398971869    0.3352587057877991    0.2913247103280950   T   T   T
     0.3333299999999966    0.5000000000000000    0.0292499999999976   F   F   F
     0.6666700000000034    0.5000000000000000    0.1462500000000020   F   F   F
     0.0002764379093183    0.5015099635238156    0.2626356896083164   T   T   T
     0.3348307802255717    0.5050596890675461    0.3790209766818270   T   T   T
     0.0000000000000000    0.5000000000000000    0.0877499999999998   F   F   F
     0.3333018463735213    0.5009542522644239    0.2043352617469777   T   T   T
     0.6715878872692870    0.4988010393102797    0.3219164088971803   T   T   T
     0.0000000000000000    0.6666700000000034    0.0000000000000000   F   F   F
     0.3333299999999966    0.6666700000000034    0.1169999999999973   F   F   F
     0.6654375398828741    0.6660919307312976    0.2330948118956799   T   T   T
     0.9946255697649872    0.6727237173650882    0.3511951030054701   T   T   T
     0.6472129829722073    0.6791320273297137    0.4029055253869184   T   T   T
     0.6666700000000034    0.6666700000000034    0.0585000000000022   F   F   F
     0.9998448576356416    0.6665746271758379    0.1752019332621861   T   T   T
     0.3302615358487808    0.6668731203998349    0.2919768827819911   T   T   T
     0.3333299999999966    0.8333299999999966    0.0292499999999976   F   F   F
     0.6666700000000034    0.8333299999999966    0.1462500000000020   F   F   F
     0.0004924872585002    0.8348655502562357    0.2619098299337083   T   T   T
     0.3202898499962408    0.8368649880525210    0.3783117081937619   T   T   T
     0.0000000000000000    0.8333299999999966    0.0877499999999998   F   F   F
     0.3335592643386372    0.8338784536415835    0.2045189283142850   T   T   T
     0.6674675413554912    0.8363210922087058    0.3179787787756614   T   T   T
     0.9926010937622097    0.3562039978187677    0.4354982445705286   T   T   T
 
  0.00000000E+00  0.00000000E+00  0.00000000E+00
  0.00000000E+00  0.00000000E+00  0.00000000E+00
  0.00000000E+00  0.00000000E+00  0.00000000E+00
  0.00000000E+00  0.00000000E+00  0.00000000E+00
  0.00000000E+00  0.00000000E+00  0.00000000E+00
  0.00000000E+00  0.00000000E+00  0.00000000E+00
  0.00000000E+00  0.00000000E+00  0.00000000E+00
  0.00000000E+00  0.00000000E+00  0.00000000E+00
  0.00000000E+00  0.00000000E+00  0.00000000E+00
  0.00000000E+00  0.00000000E+00  0.00000000E+00
  0.00000000E+00  0.00000000E+00  0.00000000E+00
  0.00000000E+00  0.00000000E+00  0.00000000E+00
  0.00000000E+00  0.00000000E+00  0.00000000E+00
  0.00000000E+00  0.00000000E+00  0.00000000E+00
  0.00000000E+00  0.00000000E+00  0.00000000E+00
  0.00000000E+00  0.00000000E+00  0.00000000E+00
  0.00000000E+00  0.00000000E+00  0.00000000E+00
  0.00000000E+00  0.00000000E+00  0.00000000E+00
  0.00000000E+00  0.00000000E+00  0.00000000E+00
  0.00000000E+00  0.00000000E+00  0.00000000E+00
  0.00000000E+00  0.00000000E+00  0.00000000E+00
  0.00000000E+00  0.00000000E+00  0.00000000E+00
  0.00000000E+00  0.00000000E+00  0.00000000E+00
  0.00000000E+00  0.00000000E+00  0.00000000E+00
  0.00000000E+00  0.00000000E+00  0.00000000E+00
  0.00000000E+00  0.00000000E+00  0.00000000E+00
  0.00000000E+00  0.00000000E+00  0.00000000E+00
  0.00000000E+00  0.00000000E+00  0.00000000E+00
  0.00000000E+00  0.00000000E+00  0.00000000E+00
  0.00000000E+00  0.00000000E+00  0.00000000E+00
  0.00000000E+00  0.00000000E+00  0.00000000E+00
  0.00000000E+00  0.00000000E+00  0.00000000E+00
  0.00000000E+00  0.00000000E+00  0.00000000E+00
  0.00000000E+00  0.00000000E+00  0.00000000E+00
  0.00000000E+00  0.00000000E+00  0.00000000E+00
  0.00000000E+00  0.00000000E+00  0.00000000E+00
  0.00000000E+00  0.00000000E+00  0.00000000E+00
  0.00000000E+00  0.00000000E+00  0.00000000E+00
  0.00000000E+00  0.00000000E+00  0.00000000E+00
  0.00000000E+00  0.00000000E+00  0.00000000E+00
  0.00000000E+00  0.00000000E+00  0.00000000E+00
  0.00000000E+00  0.00000000E+00  0.00000000E+00
  0.00000000E+00  0.00000000E+00  0.00000000E+00
  0.00000000E+00  0.00000000E+00  0.00000000E+00
  0.00000000E+00  0.00000000E+00  0.00000000E+00
  0.00000000E+00  0.00000000E+00  0.00000000E+00
