Cu Zr Cu O  C  H                        
   1.00000000000000     
     7.7216000556999997    0.0000000000000000    0.0000000000000000
    -3.8608000277999999    6.6871018061000003    0.0000000000000000
     0.0000000000000000    0.0000000000000000   21.3047008513999998
   Cu   Zr   Cu   O    C    H 
    17     1    18     1     1     4
Selective dynamics
Direct
     0.0000000000000000    0.0000000000000000    0.0000000000000000   F   F   F
     0.9832917662094200    0.9877396359737401    0.3005552779282337   T   T   T
     0.2197951538964921    0.1125976798848329    0.2027226122584316   T   T   T
     0.1111100017667752    0.2222200035364281    0.0986400023008045   F   F   F
     0.3333300053659229    0.0000000000000000    0.0000000000000000   F   F   F
     0.3296210489883601    0.9883129211402821    0.3004714184688586   T   T   T
     0.5488709098219026    0.1067806358895133    0.1983812074918597   T   T   T
     0.4444400071326982    0.2222200035364281    0.0986400023008045   F   F   F
     0.6666700243299957    0.0000000000000000    0.0000000000000000   F   F   F
     0.6599730472280796    0.9950369134084002    0.2970483572437565   T   T   T
     0.8852038941410546    0.1068436372766754    0.1985177838332020   T   T   T
     0.7777799963101941    0.2222200035364281    0.0986400023008045   F   F   F
     0.0000000000045830    0.3333300053794161    0.0000000000000000   F   F   F
     0.9902253284452139    0.3311311915376842    0.2940947076054587   T   T   T
     0.2205869123287677    0.4405256733046827    0.1990089584818722   T   T   T
     0.1111100017242208    0.5555599927626460    0.0986400023008045   F   F   F
     0.3333300053705130    0.3333300053794161    0.0000000000000000   F   F   F
     0.3278613260547271    0.3312773194921081    0.3298290598109783   T   T   T
     0.5479711043574972    0.4406107437566843    0.1987465890791474   T   T   T
     0.4444400072196544    0.5555599927626460    0.0986400023008045   F   F   F
     0.6666700243345787    0.3333300053794161    0.0000000000000000   F   F   F
     0.6659559844635214    0.3310981937916280    0.2936981496926863   T   T   T
     0.8854786459793188    0.4426805507475186    0.1950840780445469   T   T   T
     0.7777799963971503    0.5555599927626460    0.0986400023008045   F   F   F
     0.9999999999481375    0.6666700243644144    0.0000000000000000   F   F   F
     0.9911209026764366    0.6573423040856965    0.2947863734243631   T   T   T
     0.2177138045015062    0.7779127380131476    0.1974045457167540   T   T   T
     0.1111100017896831    0.8888900280503833    0.0986400023008045   F   F   F
     0.3333300054435711    0.6666700243644144    0.0000000000000000   F   F   F
     0.3269783832783357    0.6695553494402448    0.2947668503660812   T   T   T
     0.5509716739459491    0.7745933428998252    0.1969243406603956   T   T   T
     0.4444400072851167    0.8888900280503833    0.0986400023008045   F   F   F
     0.6666700244076367    0.6666700243644144    0.0000000000000000   F   F   F
     0.6674189602700691    0.6698422768995046    0.2946392066968775   T   T   T
     0.8877170669211276    0.7777927556846130    0.1974185811453757   T   T   T
     0.7777799964626126    0.8888900280503833    0.0986400023008045   F   F   F
     0.2050920346387549    0.0866008065801439    0.3740764208751398   T   T   T
     0.7107441132044068    0.3467606230513234    0.4764107886580982   T   T   T
     0.8377753571410561    0.4205697424927000    0.4444654454065271   T   T   T
     0.6855235110751322    0.4591860332699531    0.4990292055316008   T   T   T
     0.7420987558274618    0.2648692500099460    0.5121193075806172   T   T   T
     0.5777464023788111    0.2418599361062093    0.4502336365424240   T   T   T
 
  0.00000000E+00  0.00000000E+00  0.00000000E+00
  0.00000000E+00  0.00000000E+00  0.00000000E+00
  0.00000000E+00  0.00000000E+00  0.00000000E+00
  0.00000000E+00  0.00000000E+00  0.00000000E+00
  0.00000000E+00  0.00000000E+00  0.00000000E+00
  0.00000000E+00  0.00000000E+00  0.00000000E+00
  0.00000000E+00  0.00000000E+00  0.00000000E+00
  0.00000000E+00  0.00000000E+00  0.00000000E+00
  0.00000000E+00  0.00000000E+00  0.00000000E+00
  0.00000000E+00  0.00000000E+00  0.00000000E+00
  0.00000000E+00  0.00000000E+00  0.00000000E+00
  0.00000000E+00  0.00000000E+00  0.00000000E+00
  0.00000000E+00  0.00000000E+00  0.00000000E+00
  0.00000000E+00  0.00000000E+00  0.00000000E+00
  0.00000000E+00  0.00000000E+00  0.00000000E+00
  0.00000000E+00  0.00000000E+00  0.00000000E+00
  0.00000000E+00  0.00000000E+00  0.00000000E+00
  0.00000000E+00  0.00000000E+00  0.00000000E+00
  0.00000000E+00  0.00000000E+00  0.00000000E+00
  0.00000000E+00  0.00000000E+00  0.00000000E+00
  0.00000000E+00  0.00000000E+00  0.00000000E+00
  0.00000000E+00  0.00000000E+00  0.00000000E+00
  0.00000000E+00  0.00000000E+00  0.00000000E+00
  0.00000000E+00  0.00000000E+00  0.00000000E+00
  0.00000000E+00  0.00000000E+00  0.00000000E+00
  0.00000000E+00  0.00000000E+00  0.00000000E+00
  0.00000000E+00  0.00000000E+00  0.00000000E+00
  0.00000000E+00  0.00000000E+00  0.00000000E+00
  0.00000000E+00  0.00000000E+00  0.00000000E+00
  0.00000000E+00  0.00000000E+00  0.00000000E+00
  0.00000000E+00  0.00000000E+00  0.00000000E+00
  0.00000000E+00  0.00000000E+00  0.00000000E+00
  0.00000000E+00  0.00000000E+00  0.00000000E+00
  0.00000000E+00  0.00000000E+00  0.00000000E+00
  0.00000000E+00  0.00000000E+00  0.00000000E+00
  0.00000000E+00  0.00000000E+00  0.00000000E+00
  0.00000000E+00  0.00000000E+00  0.00000000E+00
  0.00000000E+00  0.00000000E+00  0.00000000E+00
  0.00000000E+00  0.00000000E+00  0.00000000E+00
  0.00000000E+00  0.00000000E+00  0.00000000E+00
  0.00000000E+00  0.00000000E+00  0.00000000E+00
  0.00000000E+00  0.00000000E+00  0.00000000E+00
